SiVH3                                   
   1.00000000000000     
    10.9404879857440527    0.0000000000000000    0.0000000000000000
     0.0000000000000000   10.9404879857440527    0.0000000000000000
     0.0000000000000000    0.0000000000000000   10.9404879857440527
   Si   H 
    63     3
Direct
  0.1240848303176421  0.1237521879801804  0.1242485270120568
  0.3745477974031601  0.3742163974018240  0.1254523592604286
  0.3745432880782502  0.1249606150116804  0.3747181197749327
  0.1252855330060285  0.3742217223636004  0.3747050024431644
  0.9988562976481319  0.9985230584025047  0.9990204384927424
  0.2493792337987628  0.2490331468381797  0.0005702458320442
  0.2493735187863493  0.0000722452247004  0.2495433386529484
  0.0004058967757530  0.2490400566628139  0.2495329388824388
  0.1236033610632674  0.1232729700437005  0.6246023670303913
  0.3676132813332629  0.3673227561248638  0.6368169089960531
  0.3731826039338415  0.1223953866115437  0.8763520779303988
  0.1227017637230290  0.3728417392977121  0.8763880635728682
  0.9990357813459454  0.9986654611286383  0.4983587582285622
  0.2490487286856364  0.2487269797839957  0.4999312881836033
  0.2483519971721151  0.9989910410195222  0.7500024854548855
  0.9993272796669146  0.2480078045386520  0.7500152442644392
  0.1235902901055326  0.6241129206515765  0.1237566314680763
  0.3731729203913616  0.8758923849565647  0.1228662166991796
  0.3676433875952654  0.6363067280740538  0.3677658609710122
  0.1227326948618881  0.8758551357491768  0.3733490674615183
  0.9989998972839658  0.4978595989113259  0.9991853124621670
  0.2483427772231082  0.7495173067257070  0.9994869250694620
  0.2490404707105611  0.4994348440174363  0.2491965252143657
  0.9993260619524449  0.7495106031251737  0.2485145051628166
  0.1242687000592966  0.6236679370206204  0.6241693687252479
  0.3724534709409042  0.8761335185845383  0.6228511700871451
  0.3724403907546119  0.6223603406007356  0.8766379852698520
  0.1232756408145761  0.8735243732680331  0.8740077942279569
  0.0000793320063011  0.4987193402631220  0.4992207499993029
  0.2452685921972986  0.7525657635925640  0.4992626121310835
  0.2452257866011323  0.4987561920085568  0.7531131977153578
  0.9987612974395006  0.7479892743086367  0.7484811794459318
  0.6244337131415705  0.1232832412343257  0.1237755233796491
  0.8761888217631935  0.3728525603613093  0.1228904625676179
  0.8762254444149207  0.1223651088954583  0.3733353540000977
  0.6366613894278288  0.3672931670362729  0.3678284262396403
  0.4981957665085091  0.9986977431916273  0.9991772488094384
  0.7498395344943489  0.2480171958124799  0.9994931511143221
  0.7498456831638549  0.9989916396387741  0.2485074295514877
  0.4997658407045833  0.2487298285130635  0.2492354781371375
  0.6240069459948856  0.1239364342357163  0.6241649872244750
  0.8764761254946336  0.3721102296827397  0.6228518142132486
  0.8738447591964231  0.1229480053189249  0.8740197170953863
  0.6226857648416555  0.3721228304701825  0.8766320432656656
  0.4990580227274393  0.9997446760998727  0.4992195661668148
  0.7529580434408061  0.2448789475865638  0.4992589710470980
  0.7483208856687042  0.9984247845596315  0.7484912750697674
  0.4991007456522851  0.2449224777698475  0.7530758266890274
  0.6240000266785657  0.6236746401842623  0.1244324692393732
  0.8738501239550445  0.8735182498551737  0.1234412647550869
  0.8764687133072258  0.6223620677143060  0.3726157500919669
  0.6226838063826250  0.8761411007816022  0.3726060159746538
  0.4990553365551520  0.4987218998277001  0.0002432237491945
  0.7483255107530553  0.7479837896591519  0.9989245748945237
  0.7529149418560834  0.4987631833511870  0.2454263768426301
  0.4990938039746240  0.7526081183413069  0.2453869428584383
  0.6436216162964357  0.6432923552708729  0.6437856054241422
  0.8745500892624349  0.8742246172800705  0.6252099292337334
  0.8745507570468263  0.6247151208930717  0.8747091820861428
  0.6250452850424892  0.8742228025770231  0.8747238331121139
  0.7502570922094804  0.7499294003972921  0.4932326719054387
  0.7502620687159194  0.4927292222708246  0.7504173903732791
  0.4930725188303597  0.7499233323737187  0.7504304212253103
  0.4509524973380152  0.4507567301275870  0.5680765068524778
  0.4510654825734548  0.5675117899731887  0.4510673844833022
  0.5679629179107408  0.4506310304228975  0.4512926732048754
 
  0.00000000E+00  0.00000000E+00  0.00000000E+00
  0.00000000E+00  0.00000000E+00  0.00000000E+00
  0.00000000E+00  0.00000000E+00  0.00000000E+00
  0.00000000E+00  0.00000000E+00  0.00000000E+00
  0.00000000E+00  0.00000000E+00  0.00000000E+00
  0.00000000E+00  0.00000000E+00  0.00000000E+00
  0.00000000E+00  0.00000000E+00  0.00000000E+00
  0.00000000E+00  0.00000000E+00  0.00000000E+00
  0.00000000E+00  0.00000000E+00  0.00000000E+00
  0.00000000E+00  0.00000000E+00  0.00000000E+00
  0.00000000E+00  0.00000000E+00  0.00000000E+00
  0.00000000E+00  0.00000000E+00  0.00000000E+00
  0.00000000E+00  0.00000000E+00  0.00000000E+00
  0.00000000E+00  0.00000000E+00  0.00000000E+00
  0.00000000E+00  0.00000000E+00  0.00000000E+00
  0.00000000E+00  0.00000000E+00  0.00000000E+00
  0.00000000E+00  0.00000000E+00  0.00000000E+00
  0.00000000E+00  0.00000000E+00  0.00000000E+00
  0.00000000E+00  0.00000000E+00  0.00000000E+00
  0.00000000E+00  0.00000000E+00  0.00000000E+00
  0.00000000E+00  0.00000000E+00  0.00000000E+00
  0.00000000E+00  0.00000000E+00  0.00000000E+00
  0.00000000E+00  0.00000000E+00  0.00000000E+00
  0.00000000E+00  0.00000000E+00  0.00000000E+00
  0.00000000E+00  0.00000000E+00  0.00000000E+00
  0.00000000E+00  0.00000000E+00  0.00000000E+00
  0.00000000E+00  0.00000000E+00  0.00000000E+00
  0.00000000E+00  0.00000000E+00  0.00000000E+00
  0.00000000E+00  0.00000000E+00  0.00000000E+00
  0.00000000E+00  0.00000000E+00  0.00000000E+00
  0.00000000E+00  0.00000000E+00  0.00000000E+00
  0.00000000E+00  0.00000000E+00  0.00000000E+00
  0.00000000E+00  0.00000000E+00  0.00000000E+00
  0.00000000E+00  0.00000000E+00  0.00000000E+00
  0.00000000E+00  0.00000000E+00  0.00000000E+00
  0.00000000E+00  0.00000000E+00  0.00000000E+00
  0.00000000E+00  0.00000000E+00  0.00000000E+00
  0.00000000E+00  0.00000000E+00  0.00000000E+00
  0.00000000E+00  0.00000000E+00  0.00000000E+00
  0.00000000E+00  0.00000000E+00  0.00000000E+00
  0.00000000E+00  0.00000000E+00  0.00000000E+00
  0.00000000E+00  0.00000000E+00  0.00000000E+00
  0.00000000E+00  0.00000000E+00  0.00000000E+00
  0.00000000E+00  0.00000000E+00  0.00000000E+00
  0.00000000E+00  0.00000000E+00  0.00000000E+00
  0.00000000E+00  0.00000000E+00  0.00000000E+00
  0.00000000E+00  0.00000000E+00  0.00000000E+00
  0.00000000E+00  0.00000000E+00  0.00000000E+00
  0.00000000E+00  0.00000000E+00  0.00000000E+00
  0.00000000E+00  0.00000000E+00  0.00000000E+00
  0.00000000E+00  0.00000000E+00  0.00000000E+00
  0.00000000E+00  0.00000000E+00  0.00000000E+00
  0.00000000E+00  0.00000000E+00  0.00000000E+00
  0.00000000E+00  0.00000000E+00  0.00000000E+00
  0.00000000E+00  0.00000000E+00  0.00000000E+00
  0.00000000E+00  0.00000000E+00  0.00000000E+00
  0.00000000E+00  0.00000000E+00  0.00000000E+00
  0.00000000E+00  0.00000000E+00  0.00000000E+00
  0.00000000E+00  0.00000000E+00  0.00000000E+00
  0.00000000E+00  0.00000000E+00  0.00000000E+00
  0.00000000E+00  0.00000000E+00  0.00000000E+00
  0.00000000E+00  0.00000000E+00  0.00000000E+00
  0.00000000E+00  0.00000000E+00  0.00000000E+00
  0.00000000E+00  0.00000000E+00  0.00000000E+00
  0.00000000E+00  0.00000000E+00  0.00000000E+00
  0.00000000E+00  0.00000000E+00  0.00000000E+00
