GaN_CN                                  
   1.00000000000000     
     9.5889339447000008    0.0000000000000000    0.0000000000000000
     0.0000000000000000   11.0723476410000004    0.0000000000000000
     0.0000000000000000    0.0000000000000000   10.4212007523000008
   Ga   N    C 
    48    47     1
Direct
  0.1661695584610783  0.0825801468573815  0.4997226328820545
  0.1666829345471967  0.0831967471825195  0.0001992926629626
  0.1677758585469746  0.5821163976526194  0.4986210207521324
  0.1667946227579549  0.5829064485160913  0.0001235866130500
  0.5000000000000000  0.0841905342676696  0.4988780674263964
  0.5000000000000000  0.0830742795245740  0.0003153731084069
  0.5000000000000000  0.5805892420279548  0.4988883295101516
  0.5000000000000000  0.5829649986611400  0.9982026584428993
  0.8338304265389169  0.0825801468573815  0.4997226328820545
  0.8333170504527985  0.0831967471825195  0.0001992926629626
  0.8322241264530206  0.5821163976526194  0.4986210207521324
  0.8332053622420403  0.5829064485160913  0.0001235866130500
  0.0000000000000000  0.3330178487623954  0.4995099765715025
  0.0000000000000000  0.3334433565350423  0.0002279247116093
  0.0000000000000000  0.8318426299329076  0.4996787318650533
  0.0000000000000000  0.8327073653521353  0.9999932344964648
  0.3355834378880331  0.3339654250055020  0.4989680378814967
  0.3334601183929351  0.3330611897768989  0.9982972121254576
  0.3330772298359150  0.8334922234375384  0.4995121227421535
  0.3332766122692092  0.8329315334367138  0.0000606966086707
  0.6644165921119694  0.3339654250055020  0.4989680378814967
  0.6665399116070674  0.3330611897768989  0.9982972121254576
  0.6669228001640874  0.8334922234375384  0.4995121227421535
  0.6667234177307932  0.8329315334367138  0.0000606966086707
  0.1676888420368954  0.4163936358705271  0.2501638365578813
  0.1666686698211990  0.4168394436610754  0.7494812062900351
  0.1665848913066554  0.9171108631364220  0.2501509476584971
  0.1664143336418320  0.9170543880426791  0.7499043042182478
  0.5000000000000000  0.4171318490808531  0.2524102429230481
  0.5000000000000000  0.4170545955749390  0.7465644195467576
  0.5000000000000000  0.9174998868107522  0.2501676720673203
  0.5000000000000000  0.9173733892258937  0.7495392269588592
  0.8323111429630998  0.4163936358705271  0.2501638365578813
  0.8333313151787962  0.4168394436610754  0.7494812062900351
  0.8334150936933398  0.9171108631364220  0.2501509476584971
  0.8335856513581632  0.9170543880426791  0.7499043042182478
  0.0000000000000000  0.1673502100291131  0.2500052764546652
  0.0000000000000000  0.1673366490783437  0.7498429136787195
  0.0000000000000000  0.6664225537729536  0.2502799019154907
  0.0000000000000000  0.6663377396037831  0.7492760924630062
  0.3332220135186503  0.1682796550030758  0.2502878757188967
  0.3331106633534731  0.1669493272586564  0.7495432280345895
  0.3344219910737962  0.6666864564410631  0.2501630633652283
  0.3333364777881869  0.6673304789468801  0.7493328917701874
  0.6667780164813522  0.1682796550030758  0.2502878757188967
  0.6668893666465294  0.1669493272586564  0.7495432280345895
  0.6655780389261992  0.6666864564410631  0.2501630633652283
  0.6666635522118156  0.6673304789468801  0.7493328917701874
  0.1664539423619047  0.0835522975689926  0.1881109601068118
  0.1661241074886419  0.0832929873742714  0.6882301012888021
  0.1668463134059834  0.5836349727409456  0.1882045179733680
  0.1667553558631809  0.5836012426316941  0.6874560357488519
  0.5000000000000000  0.0840022468889927  0.1883457857767610
  0.5000000000000000  0.0836948777909612  0.6876480694244762
  0.5000000000000000  0.5848731543522092  0.1846627124986853
  0.5000000000000000  0.5856489843296302  0.6897100276940691
  0.8335460426380905  0.0835522975689926  0.1881109601068118
  0.8338758775113533  0.0832929873742714  0.6882301012888021
  0.8331536715940118  0.5836349727409456  0.1882045179733680
  0.8332446291368143  0.5836012426316941  0.6874560357488519
  0.0000000000000000  0.3337371567543315  0.1879752174453913
  0.0000000000000000  0.3335338636804792  0.6880755885010075
  0.0000000000000000  0.8332897209929087  0.1881161837418261
  0.0000000000000000  0.8331929915987359  0.6881975392854756
  0.3323442179266749  0.3331596147191505  0.1846865389926364
  0.3316009038612435  0.3326113359354039  0.6897863372559527
  0.3332347746194557  0.8340697431939361  0.1880693361601544
  0.3330583485201117  0.8343299727517248  0.6880767067371636
  0.6676558120733276  0.3331596147191505  0.1846865389926364
  0.6683991261387590  0.3326113359354039  0.6897863372559527
  0.6667652553805468  0.8340697431939361  0.1880693361601544
  0.6669416814798907  0.8343299727517248  0.6880767067371636
  0.1647346934307663  0.4156583740325885  0.4378736697827534
  0.1661150057474927  0.4167792915182460  0.9376505123498617
  0.1656241537343064  0.9161234992051348  0.4381694038393107
  0.1664084516991409  0.9164441430589108  0.9382044869752164
  0.5000000000000000  0.4164259983149918  0.9359613902287762
  0.5000000000000000  0.9168371882257134  0.4382270798831200
  0.5000000000000000  0.9163293736604743  0.9380205702173825
  0.8352652915692289  0.4156583740325885  0.4378736697827534
  0.8338849792525025  0.4167792915182460  0.9376505123498617
  0.8343758312656888  0.9161234992051348  0.4381694038393107
  0.8335915333008543  0.9164441430589108  0.9382044869752164
  0.0000000000000000  0.1660720686449935  0.4380696182698500
  0.0000000000000000  0.1666061494957347  0.9381416582737856
  0.0000000000000000  0.6657043922384460  0.4381603511604624
  0.0000000000000000  0.6662916717435152  0.9378473354988515
  0.3313172444164181  0.1643260660361463  0.4380956990877749
  0.3333189170622859  0.1655507857994678  0.9377034581919972
  0.3324440156550779  0.6687998830105855  0.4379902728985314
  0.3325637275621389  0.6668600664953033  0.9375650033925353
  0.6686827855835844  0.1643260660361463  0.4380956990877749
  0.6666811129377166  0.1655507857994678  0.9377034581919972
  0.6675560143449246  0.6687998830105855  0.4379902728985314
  0.6674363024378636  0.6668600664953033  0.9375650033925353
  0.5000000000000000  0.4160445964510586  0.4382508366332090
 
  0.00000000E+00  0.00000000E+00  0.00000000E+00
  0.00000000E+00  0.00000000E+00  0.00000000E+00
  0.00000000E+00  0.00000000E+00  0.00000000E+00
  0.00000000E+00  0.00000000E+00  0.00000000E+00
  0.00000000E+00  0.00000000E+00  0.00000000E+00
  0.00000000E+00  0.00000000E+00  0.00000000E+00
  0.00000000E+00  0.00000000E+00  0.00000000E+00
  0.00000000E+00  0.00000000E+00  0.00000000E+00
  0.00000000E+00  0.00000000E+00  0.00000000E+00
  0.00000000E+00  0.00000000E+00  0.00000000E+00
  0.00000000E+00  0.00000000E+00  0.00000000E+00
  0.00000000E+00  0.00000000E+00  0.00000000E+00
  0.00000000E+00  0.00000000E+00  0.00000000E+00
  0.00000000E+00  0.00000000E+00  0.00000000E+00
  0.00000000E+00  0.00000000E+00  0.00000000E+00
  0.00000000E+00  0.00000000E+00  0.00000000E+00
  0.00000000E+00  0.00000000E+00  0.00000000E+00
  0.00000000E+00  0.00000000E+00  0.00000000E+00
  0.00000000E+00  0.00000000E+00  0.00000000E+00
  0.00000000E+00  0.00000000E+00  0.00000000E+00
  0.00000000E+00  0.00000000E+00  0.00000000E+00
  0.00000000E+00  0.00000000E+00  0.00000000E+00
  0.00000000E+00  0.00000000E+00  0.00000000E+00
  0.00000000E+00  0.00000000E+00  0.00000000E+00
  0.00000000E+00  0.00000000E+00  0.00000000E+00
  0.00000000E+00  0.00000000E+00  0.00000000E+00
  0.00000000E+00  0.00000000E+00  0.00000000E+00
  0.00000000E+00  0.00000000E+00  0.00000000E+00
  0.00000000E+00  0.00000000E+00  0.00000000E+00
  0.00000000E+00  0.00000000E+00  0.00000000E+00
  0.00000000E+00  0.00000000E+00  0.00000000E+00
  0.00000000E+00  0.00000000E+00  0.00000000E+00
  0.00000000E+00  0.00000000E+00  0.00000000E+00
  0.00000000E+00  0.00000000E+00  0.00000000E+00
  0.00000000E+00  0.00000000E+00  0.00000000E+00
  0.00000000E+00  0.00000000E+00  0.00000000E+00
  0.00000000E+00  0.00000000E+00  0.00000000E+00
  0.00000000E+00  0.00000000E+00  0.00000000E+00
  0.00000000E+00  0.00000000E+00  0.00000000E+00
  0.00000000E+00  0.00000000E+00  0.00000000E+00
  0.00000000E+00  0.00000000E+00  0.00000000E+00
  0.00000000E+00  0.00000000E+00  0.00000000E+00
  0.00000000E+00  0.00000000E+00  0.00000000E+00
  0.00000000E+00  0.00000000E+00  0.00000000E+00
  0.00000000E+00  0.00000000E+00  0.00000000E+00
  0.00000000E+00  0.00000000E+00  0.00000000E+00
  0.00000000E+00  0.00000000E+00  0.00000000E+00
  0.00000000E+00  0.00000000E+00  0.00000000E+00
  0.00000000E+00  0.00000000E+00  0.00000000E+00
  0.00000000E+00  0.00000000E+00  0.00000000E+00
  0.00000000E+00  0.00000000E+00  0.00000000E+00
  0.00000000E+00  0.00000000E+00  0.00000000E+00
  0.00000000E+00  0.00000000E+00  0.00000000E+00
  0.00000000E+00  0.00000000E+00  0.00000000E+00
  0.00000000E+00  0.00000000E+00  0.00000000E+00
  0.00000000E+00  0.00000000E+00  0.00000000E+00
  0.00000000E+00  0.00000000E+00  0.00000000E+00
  0.00000000E+00  0.00000000E+00  0.00000000E+00
  0.00000000E+00  0.00000000E+00  0.00000000E+00
  0.00000000E+00  0.00000000E+00  0.00000000E+00
  0.00000000E+00  0.00000000E+00  0.00000000E+00
  0.00000000E+00  0.00000000E+00  0.00000000E+00
  0.00000000E+00  0.00000000E+00  0.00000000E+00
  0.00000000E+00  0.00000000E+00  0.00000000E+00
  0.00000000E+00  0.00000000E+00  0.00000000E+00
  0.00000000E+00  0.00000000E+00  0.00000000E+00
  0.00000000E+00  0.00000000E+00  0.00000000E+00
  0.00000000E+00  0.00000000E+00  0.00000000E+00
  0.00000000E+00  0.00000000E+00  0.00000000E+00
  0.00000000E+00  0.00000000E+00  0.00000000E+00
  0.00000000E+00  0.00000000E+00  0.00000000E+00
  0.00000000E+00  0.00000000E+00  0.00000000E+00
  0.00000000E+00  0.00000000E+00  0.00000000E+00
  0.00000000E+00  0.00000000E+00  0.00000000E+00
  0.00000000E+00  0.00000000E+00  0.00000000E+00
  0.00000000E+00  0.00000000E+00  0.00000000E+00
  0.00000000E+00  0.00000000E+00  0.00000000E+00
  0.00000000E+00  0.00000000E+00  0.00000000E+00
  0.00000000E+00  0.00000000E+00  0.00000000E+00
  0.00000000E+00  0.00000000E+00  0.00000000E+00
  0.00000000E+00  0.00000000E+00  0.00000000E+00
  0.00000000E+00  0.00000000E+00  0.00000000E+00
  0.00000000E+00  0.00000000E+00  0.00000000E+00
  0.00000000E+00  0.00000000E+00  0.00000000E+00
  0.00000000E+00  0.00000000E+00  0.00000000E+00
  0.00000000E+00  0.00000000E+00  0.00000000E+00
  0.00000000E+00  0.00000000E+00  0.00000000E+00
  0.00000000E+00  0.00000000E+00  0.00000000E+00
  0.00000000E+00  0.00000000E+00  0.00000000E+00
  0.00000000E+00  0.00000000E+00  0.00000000E+00
  0.00000000E+00  0.00000000E+00  0.00000000E+00
  0.00000000E+00  0.00000000E+00  0.00000000E+00
  0.00000000E+00  0.00000000E+00  0.00000000E+00
  0.00000000E+00  0.00000000E+00  0.00000000E+00
  0.00000000E+00  0.00000000E+00  0.00000000E+00
  0.00000000E+00  0.00000000E+00  0.00000000E+00
