GaN_ONH  shift =   1.00E+0 j = 1        
    1.000000000000000     
    15.8909244537000003    0.0000000000000000    0.0000000000000000
     0.0000000000000000   16.5143318175999987    0.0000000000000000
     0.0000000000000000    0.0000000000000000   15.4982528686999999
   Ga   N    O    H 
   180   179     1     1
Direct
  0.0998749368764678  0.0560098100829478  0.3333155257434370
  0.0997260099619623  0.0555909955399798  0.6666029132908591
  0.0996842046048343  0.0557172244744990  0.0000028482688776
  0.1001404100374828  0.3889934490602229  0.3333901529539389
  0.0992694975261159  0.3888974220844048  0.6666334064813100
  0.0995781880936804  0.3889480661227225  0.0001331701806748
  0.0994686754797200  0.7225262144836719  0.3330360017678942
  0.0996821814832387  0.7223451636918981  0.6664378506586814
  0.0995072182026107  0.7224222441387980  0.9996167557947189
  0.2999437041931046  0.0555357908405512  0.3332915808395782
  0.2996968995140321  0.0557416425010544  0.6665622189441649
  0.2997000795388516  0.0556917715062824  0.0000014818301182
  0.3007254617965103  0.3895230323482792  0.3343092954518383
  0.2979558057793810  0.3877841021722048  0.6684959573679592
  0.2996073017823164  0.3888360815278347  0.9995885199218151
  0.2992803117088272  0.7230568756938851  0.3324332480154553
  0.3000441783536445  0.7223062785760987  0.6665605965577939
  0.2994492059505376  0.7226647940802806  0.9996294283233595
  0.4998575365595741  0.0553844810600808  0.3332565710063307
  0.4997680114584355  0.0556175970336525  0.6665239356847579
  0.4997652747690324  0.0555588784244634  0.9998291937152644
  0.5006646131798789  0.3878852193364821  0.3314379690720628
  0.4996751797918009  0.3889425740094197  0.6668221619815995
  0.4998348493282805  0.3887692646614411  0.9992816364554074
  0.4996437871818245  0.7212431152676047  0.3342105302452723
  0.4998137908042821  0.7243325054117662  0.6684251635736302
  0.4996452697113298  0.7224644274159999  0.9994795393843319
  0.6997857469906847  0.0553051816387864  0.3331848428326722
  0.6998622942125152  0.0556015365260052  0.6664696118253346
  0.6997975034341835  0.0555557292565680  0.9998693462345969
  0.6998500095304578  0.3889181467239737  0.3334582324478390
  0.6998798603983403  0.3888364711173367  0.6662950023249294
  0.6999380495540564  0.3887662679617847  0.9994217816129307
  0.6998989034164680  0.7221540499945576  0.3329762689615876
  0.6996492314782259  0.7222140737725979  0.6663399965618169
  0.6997598482397649  0.7224039619438116  0.9997231363548877
  0.8998244522001286  0.0557427890438547  0.3332681601968517
  0.8997501253183273  0.0556089835909077  0.6665617891622801
  0.8997346050233688  0.0556578493711939  0.9999196288124352
  0.8998876288238478  0.3889334086992378  0.3332013222362704
  0.8996684665041812  0.3889323858509783  0.6663526348992761
  0.8997273406391884  0.3889222209076451  0.9998451213246682
  0.8996949065412068  0.7223906109754523  0.3330158691119749
  0.8997025237894576  0.7223287297535421  0.6663672317880938
  0.8996113909646368  0.7223448915449708  0.9996120753600763
  0.9999398315504635  0.2224352166465451  0.3333739328291969
  0.9997310184075872  0.2222458728262211  0.6666645875605113
  0.9997582886312060  0.2223339998283578  0.9999882675653780
  0.9995665514585497  0.5556541844268708  0.3329725135880253
  0.9998083266240556  0.5555604673167878  0.6664659985806622
  0.9995995746645221  0.5556573101400417  0.9996465619233277
  0.9996937407023196  0.8892281879307262  0.3331558182301038
  0.9996718454823039  0.8889854564394284  0.6665015065609694
  0.9996051140927165  0.8890682327389428  0.9998144413382590
  0.2002510702343869  0.2226542458821825  0.3334794665585008
  0.1995853514669648  0.2219832053936130  0.6666035894781785
  0.1996865204759573  0.2222400897338446  0.0002721167170705
  0.1989618740797567  0.5556069700411328  0.3324157335552869
  0.1999691925801130  0.5553147927737498  0.6665669666895653
  0.1993111191576489  0.5556303431504119  0.9996290105156973
  0.1995374237308241  0.8893703406468632  0.3331384764039669
  0.1997114006478213  0.8890475078880939  0.6665994074723045
  0.1995649788922265  0.8891400556543232  0.9998361329318826
  0.4000812930332529  0.2221266243450373  0.3331472617246902
  0.3998287543956991  0.2223682651752128  0.6664730660567670
  0.3997447027910326  0.2220763428876751  0.9998891264953755
  0.3981813403836867  0.5565107739601203  0.3247825949249616
  0.4007132928686872  0.5550462012410478  0.6670545106790300
  0.3997067165812780  0.5555865240445144  0.9994312796571378
  0.3998579049014594  0.8886149575462028  0.3333529870921339
  0.3995009943257770  0.8893666659360306  0.6666242850079982
  0.3995761953464481  0.8891387672580748  0.0001139263627863
  0.6000392275062154  0.2219064855278248  0.3329211025660044
  0.5998388610000802  0.2222430563643840  0.6663039430947961
  0.5999763061674059  0.2220739921699959  0.9995602799507139
  0.6010581795308028  0.5554144709374000  0.3313721852391893
  0.5996584781370444  0.5556553069894932  0.6667445786458188
  0.5998571086905855  0.5555654815742059  0.9991828628351485
  0.5996177775867650  0.8884043232762764  0.3333322176066460
  0.5999049527969333  0.8892174975842906  0.6664848631404894
  0.5997008936687251  0.8890377306133885  0.0001174126768078
  0.7998345905533739  0.2222522075712021  0.3332471458757666
  0.7998018898332191  0.2222165070999935  0.6663870097881173
  0.7998314104165374  0.2222125802599066  0.9998377267864100
  0.8000064024516433  0.5556165922962393  0.3327682704605124
  0.7997679903121266  0.5555760171374473  0.6661957520976429
  0.7998431850276333  0.5555374613589734  0.9994129094342910
  0.7997882050821161  0.8889658588199509  0.3331570397625399
  0.7997093254098715  0.8889578802082880  0.6664615003729466
  0.7996801738981674  0.8889868523101256  0.9998220515335916
  0.0998132293212706  0.2779247034649757  0.1668146762499845
  0.1002596894701995  0.2780807325473162  0.5000518113023844
  0.0997172824899124  0.2778909640338441  0.8333807626663017
  0.0993609116843857  0.6114170745850487  0.1662348076282782
  0.0986498003697704  0.6114269802277832  0.4998595054225703
  0.0996403271899808  0.6113173916514825  0.8329429958252845
  0.0996203109969969  0.9448244954130161  0.1665374571512857
  0.0996507543556646  0.9452329483314941  0.4999175662182154
  0.0995843417693862  0.9446025494324886  0.8332331918355678
  0.2999193383149716  0.2779785987447099  0.1668405822452854
  0.3010772215020481  0.2793330383617842  0.5001170847946881
  0.2995525393882943  0.2773855057327168  0.8337649691444042
  0.2987379478197951  0.6118130017313277  0.1645547926732149
  0.2936214466992482  0.6147334655704029  0.4997587522632472
  0.2996781732359679  0.6112580902931128  0.8335075156893907
  0.2997152495423236  0.9445994700799218  0.1666576438579597
  0.2999412789675588  0.9442997446525681  0.4998883870752948
  0.2995647444861618  0.9447420135387858  0.8333196138836740
  0.4999958720174718  0.2773482168502426  0.1656770528186797
  0.5006515867097718  0.2757619405730409  0.4991722812666310
  0.4997967462447335  0.2776866382271166  0.8331592367806806
  0.5001699335147052  0.6113378889177099  0.1652140653429797
  0.5028694899029347  0.6052979487814412  0.5035034928259847
  0.4997476737050803  0.6115314900032232  0.8329342464895930
  0.4997307806274023  0.9445553036513132  0.1667133021714235
  0.4997219913513007  0.9440120326523953  0.4999454352118278
  0.4996651771297493  0.9445671597724115  0.8332849229821164
  0.6999208821931404  0.2778379350885487  0.1664337404701683
  0.6998496621129249  0.2780300847613120  0.4996394519139216
  0.6998401875445452  0.2777611078045723  0.8329443840228734
  0.7001994846864292  0.6113651409426168  0.1655410130101203
  0.7017922042523423  0.6115407183076016  0.4990629525187273
  0.6998376015567231  0.6112922884879737  0.8330204706818307
  0.6997067797111498  0.9444595686224417  0.1666208275124532
  0.6995054382057333  0.9436916553442387  0.4997758765864617
  0.6997321950798110  0.9446400914507365  0.8332127216849869
  0.8998318900208346  0.2779063559929185  0.1666028340918047
  0.8999318776296619  0.2778382931662122  0.4998536652653982
  0.8997446539101261  0.2778743368822489  0.8331917813732161
  0.8997071196138222  0.6113324903213169  0.1662115381039513
  0.9002092124924346  0.6112905236235449  0.4997553742061740
  0.8997021770261000  0.6112622868796151  0.8329030654442349
  0.8996791012502072  0.9446900353032390  0.1665221797713485
  0.8997178292215011  0.9447771279615580  0.4998614466573699
  0.8996471650431062  0.9445876565537290  0.8331731962372402
  0.9997501869898713  0.1113758769520317  0.1666485595777090
  0.9998729509978475  0.1115136868317776  0.4999928837784395
  0.9997063531763075  0.1112400711138974  0.8332919845740534
  0.9997752433381990  0.4446043998691920  0.1665765983991534
  0.0002094235373846  0.4444229474146795  0.4997541408163357
  0.9995522681554974  0.4445273126385700  0.8332198262230648
  0.9995620409664525  0.7780837614890004  0.1663672730490617
  0.9995529556635105  0.7782712012301758  0.4997502453556635
  0.9995555313350408  0.7779629039841538  0.8330653530312659
  0.1998405833943053  0.1113235280310008  0.1667935776507150
  0.2002903705776120  0.1117740548562409  0.4998690760940647
  0.1996178581149834  0.1111818884560023  0.8333693240974469
  0.1998813265899813  0.4444634373950507  0.1665757266772800
  0.2011781473698093  0.4445915411602712  0.5003367755313946
  0.1992244417189255  0.4445686993084550  0.8336890519321969
  0.1993640282516225  0.7782779251880712  0.1663001133215616
  0.1988938076718156  0.7790757150576226  0.4998975959240397
  0.1995309437471775  0.7779655018935543  0.8330152006289850
  0.3998333910408860  0.1111436986318779  0.1665999660868920
  0.3997816497619411  0.1108226228492555  0.4999399450831561
  0.3997426184672648  0.1111884631427387  0.8331419273551930
  0.3999017037268828  0.4441050882060580  0.1653125376975240
  0.4067476663432359  0.4447333117014693  0.5035848608923317
  0.3994860054986944  0.4443196605274906  0.8329860839493435
  0.3998306570486747  0.7778699658973594  0.1665437814623161
  0.4003282228795086  0.7767965604557077  0.5003144893891900
  0.3993634367682333  0.7783196898596714  0.8336479694237866
  0.5998513008373649  0.1110651684234796  0.1664455243754617
  0.6001698433252827  0.1103056830906368  0.4998572874577221
  0.5997848547174556  0.1111260519640922  0.8330553832355747
  0.6001340374707596  0.4443391537413035  0.1655571306313774
  0.5979341781947980  0.4455144490981695  0.4993986874195500
  0.5998970598376729  0.4444166508634879  0.8329686332224853
  0.5996285067827003  0.7777704743301186  0.1666753636842060
  0.5989063378561994  0.7760848109244023  0.4999941967434154
  0.5999774240763074  0.7783074547591013  0.8336466075412048
  0.7997636417418050  0.1112024918363872  0.1665755996206926
  0.7997106490753723  0.1110365358771404  0.4998016022858636
  0.7997765463898219  0.1111978738406805  0.8331894261770643
  0.7998418525354154  0.4445111218258404  0.1663541898160901
  0.7997091406911849  0.4443908001138865  0.4995643515892212
  0.7997683099740911  0.4444903931863209  0.8329085779915673
  0.7997233546784059  0.7779964227321514  0.1663928958330629
  0.7998507031489268  0.7780855205319384  0.4997696550950081
  0.7996609679554467  0.7779398494065788  0.8329906502150237
  0.0997992689281517  0.0558928836247432  0.1256594329111849
  0.1000572538637883  0.0563092767950550  0.4589402016409565
  0.0996800467869363  0.0556423491281350  0.7922577805661959
  0.0998194533472940  0.3890187008969264  0.1257819046943993
  0.1008988446598451  0.3892476359461696  0.4590366349441410
  0.0994808214019045  0.3889879642721326  0.7922823174526741
  0.0995798343423075  0.7224858281047304  0.1252896450099499
  0.0995765023126438  0.7225222587033500  0.4587551420281315
  0.0995861629875563  0.7224075246883359  0.7920173521985348
  0.2997444949399792  0.0556774127674231  0.1256681888087741
  0.2998463323309863  0.0553397373321474  0.4588926121798522
  0.2996188449979584  0.0557444653581953  0.7922271858290983
  0.2996912582398892  0.3889285475336877  0.1253334263417969
  0.3034662641506003  0.3920036569958114  0.4601016724385047
  0.2988562832528388  0.3885073417531615  0.7938851681440227
  0.2994905140259121  0.7229792013982603  0.1251740719410677
  0.2989626371807361  0.7237560646971630  0.4582144455357735
  0.2996170778146521  0.7222504005163017  0.7920956814862379
  0.4997682568718602  0.0555896903235791  0.1254920403757751
  0.4998084334173072  0.0551051167262742  0.4589041687410003
  0.4997037738412189  0.0556183726305264  0.7921877895654461
  0.4999201621988476  0.3887339162356085  0.1249704979819271
  0.5015407644599961  0.3843459006247087  0.4553884950599780
  0.4997660923157738  0.3888147328909923  0.7925677446155532
  0.4996606794454550  0.7224391242693642  0.1252136035325719
  0.4987155926022879  0.7177685409983567  0.4599994798191602
  0.4996130486992953  0.7233044356730076  0.7938144828572007
  0.6998431435700425  0.0555081635264187  0.1255169475845861
  0.6999965757209807  0.0547534856701830  0.4587974539976969
  0.6998386487956836  0.0556473725097248  0.7921275854499896
  0.7001025191954469  0.3887968262556143  0.1249853120639770
  0.6996112017986249  0.3890813472890429  0.4589623181419924
  0.6999121561356390  0.3888308148963375  0.7920976271703708
  0.6997072808879921  0.7225886671875301  0.1252584684158364
  0.7001042618460787  0.7227049175476097  0.4586237070721566
  0.6996335350144705  0.7224245795226665  0.7920746622016068
  0.8998317413099173  0.0557482007088410  0.1255584254088689
  0.8999930392820872  0.0558235293627192  0.4588853696464170
  0.8997760715262402  0.0556524495121664  0.7922092792101338
  0.8999041676828554  0.3889754603297391  0.1254872262764266
  0.9001904486619807  0.3888987632786325  0.4588020983068333
  0.8997759340914726  0.3889304617652058  0.7920361002925205
  0.8996834502691655  0.7224429869686801  0.1252517125800736
  0.8998749430783448  0.7224343151006991  0.4586842552626038
  0.8996678528355559  0.7223849516252230  0.7919982648686101
  0.9998791970879495  0.2224332602738812  0.1256350806157016
  0.0002249114850059  0.2225681311684724  0.4589872089535305
  0.9997783019718014  0.2223159825880217  0.7923198415244244
  0.9996494742648352  0.5556755004013212  0.1252960596792221
  0.9997956468465645  0.5555176247565967  0.4585849380866378
  0.9997573699754909  0.5556308919395363  0.7920602351363684
  0.9997006950263909  0.8891806321381921  0.1254776468851020
  0.9998433810719902  0.8893646526381005  0.4588120806920486
  0.9996579923910360  0.8890332397741929  0.7921431607306531
  0.1998577621349114  0.2224248286208024  0.1259315122506877
  0.2008357681328548  0.2233276323754225  0.4591216828789300
  0.1995575367235816  0.2221704143647685  0.7922975258196203
  0.1991310433110414  0.5555215034741394  0.1251695778667710
  0.1983597693571681  0.5555916765590823  0.4581828627921425
  0.1998167187978552  0.5557297236040313  0.7920839968078752
  0.1996002523448084  0.8892833291953295  0.1254784166130918
  0.1994823102712004  0.8896154152034157  0.4587579638952803
  0.1996265572375222  0.8890729939695490  0.7922008099654150
  0.3996081448028477  0.2221649151422227  0.1254329257226914
  0.3996973291635513  0.2216246379174294  0.4587791853091829
  0.3996635475180454  0.2222940622374026  0.7921981779856182
  0.3994718689386048  0.5557685237752708  0.1254605297029556
  0.3994793073005312  0.5557541186067141  0.7927321648795385
  0.3996925078106202  0.8889878752061264  0.1257615787804767
  0.3998740081090943  0.8880227597418369  0.4590185858317142
  0.3994837579473085  0.8892362238409461  0.7922811517515953
  0.6001419883238199  0.2220544354626313  0.1251020458889300
  0.6008107524232855  0.2208325552055115  0.4585104135940625
  0.5997810928323446  0.2221937087197361  0.7920275712465283
  0.5999956264163160  0.5556273196851436  0.1248650338072963
  0.6045972942823923  0.5564322048807639  0.4553209509785106
  0.5998443878827686  0.5556742635820981  0.7924981672898213
  0.5996725344471940  0.8889171525364716  0.1257658750354835
  0.5992650851865591  0.8876071588312584  0.4589952808078479
  0.5997387669363690  0.8892234336644478  0.7921861574267197
  0.7999401813849119  0.2222640647130163  0.1254930335491622
  0.8000031596466854  0.2221597536394171  0.4588595706038348
  0.7998844767836673  0.2222115911252800  0.7920905618175027
  0.8000168586186618  0.5555348892110246  0.1249553622215060
  0.8012339641852648  0.5554943914204387  0.4583702708663751
  0.7997849185572221  0.5556671533560049  0.7919185936023041
  0.7997535356739292  0.8890888271755770  0.1254721421686682
  0.7999591105235098  0.8890369799340121  0.4587585098040918
  0.7996884316753992  0.8890504308682239  0.7921173441361944
  0.1000531107340450  0.2779254648111404  0.2924386373905890
  0.0997133668346564  0.2778072324274206  0.6256858730107098
  0.0997948896130012  0.2778834588135481  0.9590734792870705
  0.0993741380023394  0.6114574124066223  0.2918715953338804
  0.1000420328033513  0.6111909914056284  0.6254450467389461
  0.0995488168102554  0.6113328902791721  0.9585700966984376
  0.0996621962287136  0.9449139361845411  0.2921919754365092
  0.0996935073470553  0.9444964186854463  0.6255304138989786
  0.0996041747633072  0.9446408369218204  0.9588752857553686
  0.3002296144356151  0.2784763490582733  0.2926608577773777
  0.2994213251339559  0.2774129084658696  0.6257268974383052
  0.2996848645896293  0.2775710119981483  0.9592750004724877
  0.2979503674039350  0.6122351037835685  0.2902704839232868
  0.3005439163835533  0.6107693591522931  0.6241201332480486
  0.2994726324025123  0.6113399005157447  0.9591370577154521
  0.2998667239052821  0.9443441883871557  0.2923378179019664
  0.2995637591918054  0.9446694793896029  0.6254919467556874
  0.2995903795869879  0.9446079944113848  0.9589715749243908
  0.4999882406405973  0.2768473696292020  0.2908463007344864
  0.4998320832560594  0.2777320738427846  0.6251221852940247
  0.4997879629232713  0.2775417799720756  0.9588207413440841
  0.4999242255447598  0.6107449119382480  0.2914613975296589
  0.4998239205910409  0.6145341367035329  0.6296765493346044
  0.4996867144956951  0.6112594414266184  0.9587935079334002
  0.4997369151156263  0.9442262056323685  0.2923382278244588
  0.4996843121119809  0.9445135993650595  0.6255852133238733
  0.4996416258460457  0.9444187759795284  0.9589803615930848
  0.6999055749902823  0.2777881633544723  0.2920531415393057
  0.6998838790585182  0.2776679993500366  0.6253639791443248
  0.6998919685827332  0.2776556218087194  0.9585879801003117
  0.7005938558942049  0.6115287713813515  0.2907062198725541
  0.6998319061313723  0.6111760818880612  0.6250147495532374
  0.6998786429819148  0.6113045507512567  0.9586651248533045
  0.6995630592858149  0.9441379055918873  0.2922610881049010
  0.6998180034322203  0.9445598206158721  0.6253996219121660
  0.6996644730699941  0.9444821442066313  0.9588772142345690
  0.8999142539368350  0.2778205775540670  0.2922197302539971
  0.8998528236087537  0.2777916124869293  0.6255132545681690
  0.8998063348988339  0.2778360453631379  0.9588648309424883
  0.8999201531523227  0.6113594117345684  0.2918009911296764
  0.8999738832242699  0.6112622005379222  0.6253954316871884
  0.8997511895986037  0.6112871720557678  0.9585431821891106
  0.8997087774227666  0.9446732827907809  0.2921484986491691
  0.8997356185189815  0.9445214676116933  0.6254936622865372
  0.8996473938640364  0.9445922618516462  0.9588235752475711
  0.9998241196288191  0.1113522450450333  0.2922838530839442
  0.9997670455508825  0.1111473036440884  0.6256254602206539
  0.9997202878461593  0.1112384413380312  0.9589555323718457
  0.0000753430343039  0.4445087209308909  0.2922653151122603
  0.9996357109770315  0.4445548865860331  0.6253739772066353
  0.9997031134991801  0.4445310813356897  0.9588659252895937
  0.9996408049961545  0.7781284080607023  0.2920440994471818
  0.9997669173144459  0.7778966661011069  0.6253807444028041
  0.9995748482948414  0.7779861739427005  0.9586982901852963
  0.2000460964692294  0.1114478228864897  0.2924680021763919
  0.1996498667268867  0.1110569414637581  0.6254860553435506
  0.1996876615271219  0.1112092993329696  0.9590366213445449
  0.2003785179809299  0.4444761343700137  0.2923965325599411
  0.1992080580027462  0.4443697656051171  0.6258459503951386
  0.1994637957015470  0.4445839177239392  0.9591738926623208
  0.1992912053660589  0.7783283127220315  0.2919511119169940
  0.1998364109675634  0.7777770945394664  0.6254873577754765
  0.1994655396036364  0.7780569963430182  0.9586444813722892
  0.3998513830304944  0.1109735242335361  0.2921985622940824
  0.3997511361671400  0.1111374787880592  0.6255824276203228
  0.3997281484436712  0.1110268343266441  0.9588110166407091
  0.4002944390019252  0.4445801150623225  0.2915530130100450
  0.3967806641893006  0.4427087784207799  0.6297272491101396
  0.3996662092665844  0.4444335677457190  0.9588314494469188
  0.4000172046337127  0.7773708646751629  0.2923434774800526
  0.3995361830088342  0.7783743033183725  0.6258157308422838
  0.3994268484439871  0.7781015346883748  0.9591146492008278
  0.5998506092987057  0.1107571558466347  0.2920206200370785
  0.5998066088324236  0.1109898031212850  0.6255097730946844
  0.5997875468029363  0.1109641299037136  0.9587144745519680
  0.6002323556928957  0.4442618822115776  0.2908759506467504
  0.6001937282040473  0.4442403990615489  0.6259204094682289
  0.5998780757550577  0.4443777686641681  0.9586527565467122
  0.5992952796280591  0.7771806183367715  0.2924899696756782
  0.5998708372037740  0.7782965038258283  0.6256202266428730
  0.5998097032012026  0.7780368265191413  0.9591391170223957
  0.7997377653196978  0.1110745197354319  0.2922297048119660
  0.7998260556914900  0.1110923681131482  0.6254429717494361
  0.7997675408036500  0.1111165403787595  0.9588461392802543
  0.7999373064036206  0.4444498683897109  0.2919914042512701
  0.7998912026094089  0.4445006388699042  0.6252984062707654
  0.7998734962542429  0.4444679855227918  0.9585500255943487
  0.7997736627107699  0.7779700621176246  0.2919953782647440
  0.7997554177065993  0.7778722388434858  0.6254293808866151
  0.7997054177431053  0.7779383883865947  0.9586431091433383
  0.3897011131151729  0.5613094125613785  0.4493627897164671
  0.4881768943157709  0.5065128161994892  0.5351819780587377
 
  0.00000000E+00  0.00000000E+00  0.00000000E+00
  0.00000000E+00  0.00000000E+00  0.00000000E+00
  0.00000000E+00  0.00000000E+00  0.00000000E+00
  0.00000000E+00  0.00000000E+00  0.00000000E+00
  0.00000000E+00  0.00000000E+00  0.00000000E+00
  0.00000000E+00  0.00000000E+00  0.00000000E+00
  0.00000000E+00  0.00000000E+00  0.00000000E+00
  0.00000000E+00  0.00000000E+00  0.00000000E+00
  0.00000000E+00  0.00000000E+00  0.00000000E+00
  0.00000000E+00  0.00000000E+00  0.00000000E+00
  0.00000000E+00  0.00000000E+00  0.00000000E+00
  0.00000000E+00  0.00000000E+00  0.00000000E+00
  0.00000000E+00  0.00000000E+00  0.00000000E+00
  0.00000000E+00  0.00000000E+00  0.00000000E+00
  0.00000000E+00  0.00000000E+00  0.00000000E+00
  0.00000000E+00  0.00000000E+00  0.00000000E+00
  0.00000000E+00  0.00000000E+00  0.00000000E+00
  0.00000000E+00  0.00000000E+00  0.00000000E+00
  0.00000000E+00  0.00000000E+00  0.00000000E+00
  0.00000000E+00  0.00000000E+00  0.00000000E+00
  0.00000000E+00  0.00000000E+00  0.00000000E+00
  0.00000000E+00  0.00000000E+00  0.00000000E+00
  0.00000000E+00  0.00000000E+00  0.00000000E+00
  0.00000000E+00  0.00000000E+00  0.00000000E+00
  0.00000000E+00  0.00000000E+00  0.00000000E+00
  0.00000000E+00  0.00000000E+00  0.00000000E+00
  0.00000000E+00  0.00000000E+00  0.00000000E+00
  0.00000000E+00  0.00000000E+00  0.00000000E+00
  0.00000000E+00  0.00000000E+00  0.00000000E+00
  0.00000000E+00  0.00000000E+00  0.00000000E+00
  0.00000000E+00  0.00000000E+00  0.00000000E+00
  0.00000000E+00  0.00000000E+00  0.00000000E+00
  0.00000000E+00  0.00000000E+00  0.00000000E+00
  0.00000000E+00  0.00000000E+00  0.00000000E+00
  0.00000000E+00  0.00000000E+00  0.00000000E+00
  0.00000000E+00  0.00000000E+00  0.00000000E+00
  0.00000000E+00  0.00000000E+00  0.00000000E+00
  0.00000000E+00  0.00000000E+00  0.00000000E+00
  0.00000000E+00  0.00000000E+00  0.00000000E+00
  0.00000000E+00  0.00000000E+00  0.00000000E+00
  0.00000000E+00  0.00000000E+00  0.00000000E+00
  0.00000000E+00  0.00000000E+00  0.00000000E+00
  0.00000000E+00  0.00000000E+00  0.00000000E+00
  0.00000000E+00  0.00000000E+00  0.00000000E+00
  0.00000000E+00  0.00000000E+00  0.00000000E+00
  0.00000000E+00  0.00000000E+00  0.00000000E+00
  0.00000000E+00  0.00000000E+00  0.00000000E+00
  0.00000000E+00  0.00000000E+00  0.00000000E+00
  0.00000000E+00  0.00000000E+00  0.00000000E+00
  0.00000000E+00  0.00000000E+00  0.00000000E+00
  0.00000000E+00  0.00000000E+00  0.00000000E+00
  0.00000000E+00  0.00000000E+00  0.00000000E+00
  0.00000000E+00  0.00000000E+00  0.00000000E+00
  0.00000000E+00  0.00000000E+00  0.00000000E+00
  0.00000000E+00  0.00000000E+00  0.00000000E+00
  0.00000000E+00  0.00000000E+00  0.00000000E+00
  0.00000000E+00  0.00000000E+00  0.00000000E+00
  0.00000000E+00  0.00000000E+00  0.00000000E+00
  0.00000000E+00  0.00000000E+00  0.00000000E+00
  0.00000000E+00  0.00000000E+00  0.00000000E+00
  0.00000000E+00  0.00000000E+00  0.00000000E+00
  0.00000000E+00  0.00000000E+00  0.00000000E+00
  0.00000000E+00  0.00000000E+00  0.00000000E+00
  0.00000000E+00  0.00000000E+00  0.00000000E+00
  0.00000000E+00  0.00000000E+00  0.00000000E+00
  0.00000000E+00  0.00000000E+00  0.00000000E+00
  0.00000000E+00  0.00000000E+00  0.00000000E+00
  0.00000000E+00  0.00000000E+00  0.00000000E+00
  0.00000000E+00  0.00000000E+00  0.00000000E+00
  0.00000000E+00  0.00000000E+00  0.00000000E+00
  0.00000000E+00  0.00000000E+00  0.00000000E+00
  0.00000000E+00  0.00000000E+00  0.00000000E+00
  0.00000000E+00  0.00000000E+00  0.00000000E+00
  0.00000000E+00  0.00000000E+00  0.00000000E+00
  0.00000000E+00  0.00000000E+00  0.00000000E+00
  0.00000000E+00  0.00000000E+00  0.00000000E+00
  0.00000000E+00  0.00000000E+00  0.00000000E+00
  0.00000000E+00  0.00000000E+00  0.00000000E+00
  0.00000000E+00  0.00000000E+00  0.00000000E+00
  0.00000000E+00  0.00000000E+00  0.00000000E+00
  0.00000000E+00  0.00000000E+00  0.00000000E+00
  0.00000000E+00  0.00000000E+00  0.00000000E+00
  0.00000000E+00  0.00000000E+00  0.00000000E+00
  0.00000000E+00  0.00000000E+00  0.00000000E+00
  0.00000000E+00  0.00000000E+00  0.00000000E+00
  0.00000000E+00  0.00000000E+00  0.00000000E+00
  0.00000000E+00  0.00000000E+00  0.00000000E+00
  0.00000000E+00  0.00000000E+00  0.00000000E+00
  0.00000000E+00  0.00000000E+00  0.00000000E+00
  0.00000000E+00  0.00000000E+00  0.00000000E+00
  0.00000000E+00  0.00000000E+00  0.00000000E+00
  0.00000000E+00  0.00000000E+00  0.00000000E+00
  0.00000000E+00  0.00000000E+00  0.00000000E+00
  0.00000000E+00  0.00000000E+00  0.00000000E+00
  0.00000000E+00  0.00000000E+00  0.00000000E+00
  0.00000000E+00  0.00000000E+00  0.00000000E+00
  0.00000000E+00  0.00000000E+00  0.00000000E+00
  0.00000000E+00  0.00000000E+00  0.00000000E+00
  0.00000000E+00  0.00000000E+00  0.00000000E+00
  0.00000000E+00  0.00000000E+00  0.00000000E+00
  0.00000000E+00  0.00000000E+00  0.00000000E+00
  0.00000000E+00  0.00000000E+00  0.00000000E+00
  0.00000000E+00  0.00000000E+00  0.00000000E+00
  0.00000000E+00  0.00000000E+00  0.00000000E+00
  0.00000000E+00  0.00000000E+00  0.00000000E+00
  0.00000000E+00  0.00000000E+00  0.00000000E+00
  0.00000000E+00  0.00000000E+00  0.00000000E+00
  0.00000000E+00  0.00000000E+00  0.00000000E+00
  0.00000000E+00  0.00000000E+00  0.00000000E+00
  0.00000000E+00  0.00000000E+00  0.00000000E+00
  0.00000000E+00  0.00000000E+00  0.00000000E+00
  0.00000000E+00  0.00000000E+00  0.00000000E+00
  0.00000000E+00  0.00000000E+00  0.00000000E+00
  0.00000000E+00  0.00000000E+00  0.00000000E+00
  0.00000000E+00  0.00000000E+00  0.00000000E+00
  0.00000000E+00  0.00000000E+00  0.00000000E+00
  0.00000000E+00  0.00000000E+00  0.00000000E+00
  0.00000000E+00  0.00000000E+00  0.00000000E+00
  0.00000000E+00  0.00000000E+00  0.00000000E+00
  0.00000000E+00  0.00000000E+00  0.00000000E+00
  0.00000000E+00  0.00000000E+00  0.00000000E+00
  0.00000000E+00  0.00000000E+00  0.00000000E+00
  0.00000000E+00  0.00000000E+00  0.00000000E+00
  0.00000000E+00  0.00000000E+00  0.00000000E+00
  0.00000000E+00  0.00000000E+00  0.00000000E+00
  0.00000000E+00  0.00000000E+00  0.00000000E+00
  0.00000000E+00  0.00000000E+00  0.00000000E+00
  0.00000000E+00  0.00000000E+00  0.00000000E+00
  0.00000000E+00  0.00000000E+00  0.00000000E+00
  0.00000000E+00  0.00000000E+00  0.00000000E+00
  0.00000000E+00  0.00000000E+00  0.00000000E+00
  0.00000000E+00  0.00000000E+00  0.00000000E+00
  0.00000000E+00  0.00000000E+00  0.00000000E+00
  0.00000000E+00  0.00000000E+00  0.00000000E+00
  0.00000000E+00  0.00000000E+00  0.00000000E+00
  0.00000000E+00  0.00000000E+00  0.00000000E+00
  0.00000000E+00  0.00000000E+00  0.00000000E+00
  0.00000000E+00  0.00000000E+00  0.00000000E+00
  0.00000000E+00  0.00000000E+00  0.00000000E+00
  0.00000000E+00  0.00000000E+00  0.00000000E+00
  0.00000000E+00  0.00000000E+00  0.00000000E+00
  0.00000000E+00  0.00000000E+00  0.00000000E+00
  0.00000000E+00  0.00000000E+00  0.00000000E+00
  0.00000000E+00  0.00000000E+00  0.00000000E+00
  0.00000000E+00  0.00000000E+00  0.00000000E+00
  0.00000000E+00  0.00000000E+00  0.00000000E+00
  0.00000000E+00  0.00000000E+00  0.00000000E+00
  0.00000000E+00  0.00000000E+00  0.00000000E+00
  0.00000000E+00  0.00000000E+00  0.00000000E+00
  0.00000000E+00  0.00000000E+00  0.00000000E+00
  0.00000000E+00  0.00000000E+00  0.00000000E+00
  0.00000000E+00  0.00000000E+00  0.00000000E+00
  0.00000000E+00  0.00000000E+00  0.00000000E+00
  0.00000000E+00  0.00000000E+00  0.00000000E+00
  0.00000000E+00  0.00000000E+00  0.00000000E+00
  0.00000000E+00  0.00000000E+00  0.00000000E+00