GaN_ONH  shift =   1.00E+0 j = 1
    1.000000000000000
    15.8909244537000003    0.0000000000000000    0.0000000000000000
     0.0000000000000000   16.5143318175999987    0.0000000000000000
     0.0000000000000000    0.0000000000000000   15.4982528686999999
   Ga   N    O    H
   180   179     1     1
Cartesian
  1.5855858787981627  0.9208544654353680  5.1657576441052013
  1.5816138872528049  0.9081279228728822 10.3371763758755701
  1.5865903899134757  0.9151638984269300  0.0026826286428111
  1.5919072338737625  6.4236955258888315  5.1707002011145500
  1.5869683468671418  6.4168590718433229 10.3342097159458213
  1.5862564598104612  6.4201589965658350  0.0057980639117706
  1.5904646747739406 11.9319845893771621  5.1585580942119966
  1.5873763647049060 11.9192773835146077 10.3268911416037543
  1.5898942879638007 11.9254433524524099 15.4885227984233751
  4.7659878899013313  0.9162419424383589  5.1683537362098244
  4.7645388470577741  0.9058474113910576 10.3357201813461828
  4.7666286034486882  0.9130211539119888  0.0037974593352601
  4.7727197423916969  6.4276502317326001  5.1881627605360858
  4.7351303306200183  6.3595216236444454 10.3951699627536449
  4.7682162030678921  6.4191234507410044  0.0030787226621231
  4.7635937911486437 11.9380752194510240  5.1686735857044468
  4.7726210180021829 11.9163627890861203 10.3103294114872917
  4.7677570836928167 11.9318724401440051 15.4728024010024967
  7.9467790644964600  0.9162634790351686  5.1683486439251078
  7.9482057252831844  0.9058494114042525 10.3357260875388128
  7.9461185707436028  0.9130171195650256  0.0037908506347239
  7.9403886447879577  6.4271114852433202  5.1884939221950699
  7.9769347020607606  6.3598784086056757 10.3945941206180379
  7.9445271355721285  6.4191239111076044  0.0030944692617787
  7.9491925829631578 11.9381855313814693  5.1686667733566942
  7.9403960826198539 11.9166850076942108 10.3107447439343325
  7.9449849006186737 11.9318540645276094 15.4727823308366048
 11.1271395866154759  0.9208471134474369  5.1657784381461598
 11.1311269011456737  0.9081434108898483 10.3371773630883883
 11.1261516045702553  0.9151657324014112  0.0026805904459608
 11.1207691737884904  6.4237213356504022  5.1708253798764732
 11.1255832348396808  6.4169178897394108 10.3341134085962487
 11.1264787042924862  6.4201511544517871  0.0057859990216224
 11.1222919333171841 11.9319497319474408  5.1585903802966788
 11.1253105183978196 11.9192594760311259 10.3268370414328086
 11.1228530071094838 11.9254453006341468 15.4885395900262992
 14.3018230670278914  0.9197453774744065  5.1671634870223420
 14.3018226989697510  0.9133256043458891 10.3340988544309553
 14.3018294887353647  0.9157751232074713  0.0015437399658564
 14.3018102785364256  6.4247457347044108  5.1668255880073950
 14.3017984542432952  6.4215304157590083 10.3328873514792789
 14.3018255017794793  6.4231280983462709  0.0015698336286711
 14.3018246820361572 11.9272703433027871  5.1594748179799996
 14.3018236432288148 11.9201554587801706 10.3285340554304472
 14.3018313029958186 11.9245526978774752 15.4942290214635996
 15.8898833626961160  3.6730856671451915  5.1696911886672998
 15.8883120995999434  3.6674706073464454 10.3364915058246769
 15.8897547669633425  3.6692617853678540  0.0039412094011263
 15.8904237880501942  9.1756298940960264  5.1626602844424774
  0.0041038150172122  9.1704878674201655 10.3247762285373330
  0.0000857990866000  9.1743686104654785 15.4936464286418438
 15.8896871194999374 14.6805234918052427  5.1628115248162656
 15.8882917303969240 14.6714822142610508 10.3313109883026044
 15.8898337385944792 14.6770853248981137 15.4963268739727713
  3.1784638853793346  3.6700615431173276  5.1690440702427143
  3.1654167866946792  3.6442131486336793 10.3441081288741010
  3.1744608409974928  3.6645653471738058  0.0121297323080825
  3.1779202572649252  9.1760408195308845  5.1405748113530327
  3.1921894675537894  9.1631033995173841 10.3166701429165943
  3.1728819382688678  9.1724059182112363 15.4833956504130121
  3.1721624205331387 14.6858529155608544  5.1618107294024664
  3.1749823492413736 14.6768684480876619 10.3340893351610994
  3.1768577300387975 14.6772440984659038 15.4917652655496365
  6.3564607332864060  3.6668680565685361  5.1762483767014960
  6.3563813323661282  3.6486034590301464 10.3476403815630853
  6.3563662920678059  3.6604063068028370  0.0172840290605115
  6.3560631529199760  9.2586959914765306  4.9846793492643062
  6.3570239717360808  9.1016732956166759 10.2910089762388299
  6.3563905401790324  9.1699568915331628 15.4872223084848137
  6.3563684314882982 14.6819512234385225  5.1593671002551904
  6.3563584491393366 14.6726678463291940 10.3224060310368895
  6.3563683908178517 14.6763360061490395 15.4926607691702394
  9.5342408061648278  3.6700374306696952  5.1691514690734017
  9.5472786411108927  3.6442605492490516 10.3441120304217336
  9.5382954945964471  3.6645659485878905  0.0120933255685913
  9.5348548251908465  9.1759785548652371  5.1407663952595355
  9.5206126889636185  9.1633275660475331 10.3167497894696663
  9.5398335321723593  9.1724122922027789 15.4833897908925060
  9.5405733591874355 14.6858596952723417  5.1618049878129941
  9.5378077251022155 14.6769107203981992 10.3340691806499585
  9.5358924722425318 14.6772461721996681 15.4917755971087647
 12.7137368227490697  3.6730985731133754  5.1697139921618005
 12.7153152707608275  3.6674907725444910 10.3364706586888300
 12.7139035299053038  3.6692637259811232  0.0039424935525810
 12.7131970723160670  9.1756228110239277  5.1626824974880794
 12.7086513626348854  9.1705005606010754 10.3247611374517678
 12.7126562781916892  9.1743657369038623 15.4936433765354931
 12.7139757296214864 14.6805152844095197  5.1628216800656199
 12.7153597547178094 14.6714780031012175 10.3313039752931992
 12.7138294472350406 14.6770832169529744 15.4963256969953758
  1.5875036690374584  4.5883323002604097  2.5897634886203837
  1.5889184629345701  4.5900592663749720  7.7536638236322890
  1.5872241206514066  4.5838985277676034 12.9219238334120554
  1.5853965957743259 10.0950429064849079  2.5759788473731517
  1.6030238190107058 10.0932079738950318  7.7371584327185889
  1.5918505314470519 10.0882215313240309 12.9034972118117128
  1.5868129352758473 15.5995938425195124  2.5801292398575311
  1.5709309832896099 15.6123337734664247  7.7499950989610245
  1.5862496228401510 15.5920212999504404 12.9159428209517806
  4.7677886635534588  4.5883260299012472  2.5931692363156209
  4.7516522496101556  4.5404487464216210  7.7644388416814216
  4.7622499485896226  4.5646208201918128 12.9426365726736279
  4.7435897833115446 10.1120322684939961  2.5277081504113514
  4.7396263665322333 10.1923337067250657  7.7103105017945843
  4.7750175737417093 10.0817908195300063 12.8992835755214923
  4.7660534847298610 15.5969528519450016  2.5799542499941368
  4.7610743094002874 15.6012010001079950  7.7456900954393557
  4.7678468713193647 15.5909756052550978 12.9135729201054552
  7.9449779905717346  4.5882559593065233  2.5931088189877176
  7.9618388229085806  4.5392457008885732  7.7642559408152767
  7.9504590435198104  4.5646633563954477 12.9425287688582387
  7.9690577904482343 10.1120005644142790  2.5279084582375999
  7.9714138311553020 10.1896431645550294  7.7109653028474252
  7.9377963789204466 10.0818723472733254 12.8991763586828849
  7.9466913716465104 15.5969645971423958  2.5799564862557536
  7.9516500745628980 15.6012102553379677  7.7456993198661817
  7.9448996095690809 15.5909620180502220 12.9135689723209097
 11.1252133707730252  4.5883412872037628  2.5897764755298880
 11.1237228165875273  4.5900647821474898  7.7535652130881250
 11.1255236527852581  4.5839046872193716 12.9219062253082342
 11.1273549570924057 10.0950460513490956  2.5759789000224012
 11.1095668465580157 10.0931086725650605  7.7370934853459872
 11.1208873198146918 10.0882099427112948 12.9035142369027707
 11.1259296046048206 15.5995977466615567  2.5801329731214362
 11.1417940035067886 15.6121745654463560  7.7499980962250490
 11.1264899956401599 15.5920297396219585 12.9159398636793625
 14.3018249624485705  4.5904200229997976  2.5858315005591477
 14.3018225204815597  4.5956745090361943  7.7523635432391149
 14.3018272954009813  4.5872080626069129 12.9184063889656606
 14.3018238570660898 10.0929204277338282  2.5794079056009185
 14.3018208194313612 10.0897260141387957  7.7440965676922620
 14.3018294843235640 10.0888534171670514 12.9089361237260505
 14.3018300789791901 15.5980134246870996  2.5822091806558554
 14.3018175424278802 15.5987065888010328  7.7480633809790831
 14.3018296621347378 15.5935149211550357 12.9149184244058706
 15.8895941033469477  1.8374911697964749  2.5851092238881841
 15.8855179096796952  1.8443729928194013  7.7519830240879495
 15.8892320367680941  1.8330391130981387 12.9187044896421366
  0.0002942598658414  7.3419102752912719  2.5840590033668525
  0.0051125177586903  7.3409184671333572  7.7480303856546158
 15.8896512684263733  7.3385802093298125 12.9144416293620576
  0.0003312529834944 12.8456334089351429  2.5776965007883765
 15.8839283718341608 12.8420298926559617  7.7442745126919288
 15.8902173296363980 12.8399753850106659 12.9119419022386932
  3.1776913727802434  1.8343686890571738  2.5868781271296912
  3.1681250674707506  1.8233488422705697  7.7526190158144628
  3.1747041559991689  1.8246747302524027 12.9230077080635635
  3.1791127352014232  7.3401767753988381  2.5823034880296118
  3.2006156005284048  7.3361019003070460  7.7588584606570468
  3.1688554320985971  7.3359082307703822 12.9262641839679375
  3.1761404038463104 12.8509725707999394  2.5747026626166769
  3.1362287561787325 12.8974275470453161  7.7553104214077564
  3.1783251581168632 12.8387128395707943 12.9000329261597972
  6.3563778728210201  1.8325910057378778  2.5901281134086007
  6.3563271847707155  1.8205273861760702  7.7555885576902117
  6.3563699782887415  1.8247392979490902 12.9222300324326582
  6.3564220610849000  7.3464630810913256  2.5869162635717342
  6.3587926932647312  7.1366703815729116  7.9016045136130817
  6.3563065413504267  7.3237660883840849 12.9079162614256546
  6.3563626902871491 12.8459768171905431  2.5746789058896793
  6.3563580016849190 12.8669887370708445  7.7249443375492683
  6.3563844932042688 12.8388708959656377 12.8929131863351145
  9.5350557710219181  1.8343809850154387  2.5868791352286822
  9.5448078045564024  1.8230702502126903  7.7526254722884049
  9.5380366190067249  1.8246777375655145 12.9230001329775934
  9.5336303372459543  7.3401701455980515  2.5823405172212590
  9.5113704241625641  7.3357814711143874  7.7584204244597039
  9.5438433991570317  7.3359193325267071 12.9261904724120420
  9.5366112947149695 12.8509753970940501  2.5746915677234843
  9.5761105515861615 12.8969298540645223  7.7552388116697379
  9.5344170200838310 12.8387536205871111 12.9001099625802116
 12.7140614781281851  1.8374951994240158  2.5851133403262225
 12.7181119203109123  1.8443515234054524  7.7519654438405174
 12.7144324947170801  1.8330439414366215 12.9187025366814137
 12.7124283806299001  7.3419072463857029  2.5840706127361859
 12.7076187384835908  7.3409153828009215  7.7480105941965451
 12.7139844543380054  7.3385824402066575 12.9144232321796739
 12.7124080968546753 12.8456331358922817  2.5777015957913489
 12.7196853579405040 12.8420054632364469  7.7442795051671158
 12.7134313961058592 12.8399708317564585 12.9119299003851484
  1.5874107868869505  0.9208801044608267  1.9489172782051845
  1.5750698178592752  0.9257912530221624  7.1121198534161358
  1.5851991786615955  0.9122866575849576 12.2835712909304018
  1.5888753217932561  6.4219504957762954  1.9526149826501717
  1.6007755694199284  6.4292779867892929  7.1189842562439480
  1.5849799809499390  6.4177094786430482 12.2815026736688164
  1.5890537893857488 11.9280894340046988  1.9379353056550308
  1.5815205965794494 11.9294213724799576  7.1074820971506831
  1.5864758402320824 11.9218419278198162 12.2722212144350031
  4.7670407293357409  0.9189355429988636  1.9501269547727769
  4.7622825247731724  0.9204129312142406  7.1150874736337792
  4.7655546105172428  0.9122010607876706 12.2831151075279585
  4.7715526050156649  6.4246820052940157  1.9559891471885555
  4.7621446928879223  6.3730996297061653  7.1334261015971192
  4.7473892147828476  6.3973803424154081 12.3294539040883269
  4.7651640345016313 11.9458314835652075  1.9174529632111073
  4.7061551881847965 12.0354951744333505  7.1140612617577981
  4.7666782600045483 11.9163746653017100 12.2594896611257784
  7.9456706213969204  0.9189387650600732  1.9501035488179572
  7.9503499634752668  0.9203926767348198  7.1150985934116564
  7.9471442113282160  0.9121969444281427 12.2831334081779779
  7.9411743132934038  6.4246612619353476  1.9559033028768169
  7.9543865948774739  6.3661232217202501  7.1320825547600846
  7.9650170322781850  6.3975255963061191 12.3289356847359155
  7.9475583976307504 11.9457678275903092  1.9175575695109943
  8.0055885995547538 12.0336776550481268  7.1140390740512034
  7.9460211164934709 11.9167562520196668 12.2600643828487375
 11.1253503013192407  0.9208653587522185  1.9488967182325365
 11.1378502477913948  0.9253529933429756  7.1121168508363510
 11.1275642955969722  0.9122996660437227 12.2835885017508435
 11.1238851791528752  6.4219618981594326  1.9525526099124357
 11.1124526468147238  6.4293161350988104  7.1190630347235331
 11.1277313545428154  6.4176927530200141 12.2814847200121253
 11.1236988535827948 11.9281124424531999  1.9379514240913200
 11.1311746303539554 11.9294662177340349  7.1074755555143447
 11.1262602085271745 11.9218648657896722 12.2722317148661979
 14.3018453003504646  0.9188587586248783  1.9484102869358000
 14.3018768054397771  0.9208861788161375  7.1148410350719260
 14.3018484399293389  0.9143270293325797 12.2812947804275527
 14.3018515503135220  6.4249047454012658  1.9490676902081794
 14.3019811668274226  6.4297799019576898  7.1142428036385672
 14.3018473142083007  6.4211474508128203 12.2798038562920109
 14.3018444008708698 11.9270522099628344  1.9433683656653407
 14.3018526711293106 11.9219399964332524  7.1064358312033464
 14.3018512169514604 11.9229287565991502 12.2750711557305969
 15.8902258391435574  3.6724102557841256  1.9508747810496936
 15.8882881709542350  3.6790261027344759  7.1167735618794712
 15.8895066402007306  3.6678676463752873 12.2836237653940969
 15.8892867018936137  9.1750944597036117  1.9431200054465569
  0.0088267728016979  9.1756622372089343  7.1108215103223875
  0.0009304804754640  9.1715861398317067 12.2720950787982730
 15.8898322862680157 14.6804255861552289  1.9443927834349506
 15.8858453540289570 14.6777465084684824  7.1107246721169357
 15.8894986804042109 14.6743012561963386 12.2781733107306028
  3.1775325674681794  3.6714722629846452  1.9583873827454457
  3.1633566536341964  3.6533514110311929  7.1151708436457257
  3.1724690780455287  3.6580956230296038 12.2907157597513095
  3.1646605001787802  9.1694027052755391  1.9274322616737847
  3.2177606540870833  9.1734973658573757  7.0945867375887826
  3.1827238407482641  9.1676139300232027 12.2665012659785280
  3.1752511283984663 14.6847947862352690  1.9400915879907490
  3.1560305572410114 14.7178752665585737  7.1081356261322304
  3.1767179197471567 14.6776508191430022 12.2790973190638582
  6.3562969163465937  3.6687504400756472  1.9621462420125615
  6.3561306115732537  3.6537137002721156  7.1247344310266829
  6.3563084102443019  3.6612780029557981 12.2952336246724450
  6.3563554205060795  9.1831436425586492  1.9424009989078044
  6.3563234427470885  9.1576576652603912 12.2556463869053314
  6.3563662333466402 14.6819132785920736  1.9420308518481277
  6.3563771022311428 14.7045541202203651  7.1055615781829413
  6.3563276857834881 14.6761363822133575 12.2702084103971885
  9.5352481623053666  3.6714396065640873  1.9582359289695868
  9.5502534174664611  3.6518116308445325  7.1151491317099653
  9.5402594739205178  3.6581102068247389 12.2907701275906565
  9.5479730269143435  9.1694909661237514  1.9275283106565289
  9.4953864762740956  9.1736382396772136  7.0944152895964727
  9.5301523524189840  9.1675190412805012 12.2667980469149089
  9.5374794000807981 14.6847987137184646  1.9401148301941002
  9.5564981906511477 14.7174988783534726  7.1081359792008625
  9.5360381363686759 14.6777049972681350 12.2791099387830052
 12.7134680704367025  3.6724106822038358  1.9508669985105209
 12.7155536214462934  3.6789738505100229  7.1167853715004554
 12.7141952167923034  3.6678630100195302 12.2836197043590829
 12.7144025288664775  9.1750921681302238  1.9430990390107787
 12.7041207142506725  9.1757128035017548  7.1108135034652085
 12.7118833855013467  9.1715931763870842 12.2721197690984987
 12.7138542613219609 14.6804263020449550  1.9443903415060382
 12.7178780002223846 14.6776777580204207  7.1107191848385654
 12.7141919042408098 14.6743095757545650 12.2781768554673487
  1.5895653955112492  4.5893628578652752  4.5364991467228641
  1.5886525216880987  4.5807991218297497  9.7015522810976051
  1.5890517171620007  4.5854579392314250 14.8690630016161407
  1.5834777445770276 10.0940068253079414  4.5250341983316389
  1.5998582286699043 10.0825850895703901  9.6852930982080903
  1.5868136004707467 10.0911858987397576 14.8500995789335803
  1.5836541126373493 15.6030286538220029  4.5259060779775613
  1.5830588051107084 15.5908841255066761  9.6973474303849478
  1.5866718557600532 15.5958680869246820 14.8619438158294628
  4.7717001317404391  4.5947934794947800  4.5414668966009639
  4.7558779444414077  4.5456444462272509  9.7110105199537475
  4.7671730225904598  4.5770680721539421 14.8857082939755347
  4.7186253654201957 10.1222170376876157  4.4569866505409195
  4.7896679430544644 10.0729111653557606  9.6498504291562970
  4.7673646689291180 10.0893284971684150 14.8502965731877108
  4.7650755546119345 15.5983318352016891  4.5267868250953933
  4.7643625613404650 15.5884231374030140  9.6937789614054868
  4.7671346869269531 15.5945330541242591 14.8602110518144084
  7.9409798418782893  4.5943262778588805  4.5408034556456336
  7.9566453696328159  4.5456296844162596  9.7112107635039120
  7.9455340698151291  4.5770928805646953 14.8856069977624816
  7.9934830862144217 10.1221209382219790  4.4578518813940047
  7.9244429953764897 10.0752925692441462  9.6525853464526836
  7.9453367437044147 10.0893258423372298 14.8503016468261588
  7.9476325667070773 15.5983247500160704  4.5267807939691229
  7.9483219343410090 15.5884218319369783  9.6937931939862931
  7.9455855195368246 15.5945185869968554 14.8602161254910232
 11.1231770071303018  4.5893633888872554  4.5364604382814413
 11.1240652870966521  4.5808070104196803  9.7015669080930671
 11.1237168328720397  4.5854550508180161 14.8690320922562975
 11.1292442869176007 10.0940602583548600  4.5249215150341886
 11.1131779157459665 10.0825892812984499  9.6853019445509698
 11.1259511055073581 10.0911927092050551 14.8501729266046141
 11.1290897649691658 15.6029759199287614  4.5259001008667692
 11.1297287847941906 15.5909497498624496  9.6973437462908301
 11.1260814834702266 15.5958679708080545 14.8619497748780631
 14.3018518954868821  4.5908342620451092  4.5327152350011586
 14.3018567080914831  4.5871094192812345  9.6994406893426710
 14.3018476533064138  4.5880124641637305 14.8656274477718586
 14.3018473282438858 10.0911132932199266  4.5274510868171030
 14.3019272621052895 10.0854253389302091  9.6910789162829882
 14.3018549391590284 10.0899219400014690 14.8566158411644000
 14.3018436967315345 15.6001838310398728  4.5291288211566361
 14.3018526547401521 15.5931394602436963  9.6959178192456985
 14.3018443554512604 15.5958908232511071 14.8617249964759850
 15.8889627127120168  1.8400590900926244  4.5317032373498760
 15.8887732998770321  1.8335318544004093  9.6994633445209875
 15.8899178303479438  1.8349498507124269 14.8654813941092971
  0.0022415525820088  7.3399974524075358  4.5318999083710452
  0.0012691725064143  7.3353011977591231  9.6946114934235830
  0.0000490631664125  7.3387062956518347 14.8621223830063229
 15.8894398905383856 12.8460553336164871  4.5248161415786257
 15.8892888584920868 12.8371316378628624  9.6918314167867621
 15.8900985251247970 12.8428317429801204 14.8585793843232530
  3.1781637341177551  1.8360739150547505  4.5330052759664605
  3.1713923927360264  1.8161548798730347  9.6998735355516530
  3.1770044670553346  1.8311149111574969 14.8693840091104441
  3.1843611443328741  7.3359732478365007  4.5331497956806581
  3.1878391559511536  7.3222610933938368  9.7048486663330404
  3.1749495522943296  7.3352277311534442 14.8699424091246009
  3.1717705357506767 12.8555735069126538  4.5186189871295124
  3.1718647250171785 12.8418768356325153  9.7009827176656369
  3.1752898263813574 12.8442996600851025 14.8467646286874757
  6.3563217674637000  1.8340067247365754  4.5362911716041081
  6.3563395938154912  1.8173459677856523  9.7030114688622522
  6.3563611315694377  1.8293591716746300 14.8690712887907939
  6.3565188280528133  7.3757203216160292  4.5644145168802082
  6.3545187237010285  7.2011871808401295  9.8543221588038907
  6.3563533329277329  7.3345521834476690 14.8622686457307687
  6.3563528529893949 12.8449899119062163  4.5225447407131707
  6.3563388021200069 12.8401300754790473  9.6791049579186552
  6.3563144722695935 12.8461449797292460 14.8388549156471274
  9.5345937858043541  1.8359608663206988  4.5329067586385685
  9.5413146372829853  1.8161108181115517  9.6999640451926332
  9.5357292102054725  1.8310941649565704 14.8693671571859802
  9.5284065024682789  7.3360510919789572  4.5329348108368182
  9.5244635422550861  7.3224289740298643  9.7047791528987002
  9.5377483196045514  7.3351779980446343 14.8699132213343823
  9.5409266337727860 12.8555299528899258  4.5186550608467950
  9.5409944602158188 12.8422531602049474  9.7008925002184743
  9.5374805849561728 12.8443233260686789 14.8468895503446117
 12.7147252329180454  1.8400472004695760  4.5316995268264693
 12.7149241163518205  1.8335450646184666  9.6994648771213026
 12.7137713725322694  1.8349494434924207 14.8654800857082403
 12.7105605542055429  7.3400047534825212  4.5318632362992570
 12.7114637728052084  7.3352998639936660  9.6946561774340410
 12.7127136968206038  7.3387023403398297 14.8621093202212222
 12.7142420329502528 12.8460576365493075  4.5248087574773468
 12.7144407854090211 12.8371421828121033  9.6918435658576421
 12.7135979445622951 12.8428318014418394 14.8585775342421620
  6.3515045097343918 10.0394257226976329  6.6828258049310323
  6.4185775732141890  8.6535096114832193  7.8946596054203013
