
&control
  prefix = 'Si',
  pseudo_dir = './pseudo',
  outdir = './',

  calculation = 'nscf'
  restart_mode = 'from_scratch',
  tprnfor = .true.
  forc_conv_thr = 1.0d-4
  wf_collect = .true.
/
&system    
  ibrav=  0, celldm(1) = 30.7893077475, nat = 216, ntyp= 1,
  ecutwfc = 50.0,
  nbnd = 528,
  occupations='smearing', smearing='gauss', degauss=0.001
  la2F = .true.
  nosym = .true.
/
&electrons
  mixing_mode = 'plain'
  mixing_beta = 0.7 
  conv_thr =  1.0d-6
/
CELL_PARAMETERS (alat)
   1.006944987  -0.000000044  -0.000000076
  -0.000000044   1.006945114   0.000000078
  -0.000000076   0.000000078   1.006945100
ATOMIC_SPECIES
 Si  28.08550  Si.pbe-n-kjpaw_psl.0.1.UPF

ATOMIC_POSITIONS (alat)
Si      -0.000000271  -0.000000100   0.000002522
Si       0.167821439   0.167820831   0.000003457
Si       0.167818286   0.000003557   0.167822478
Si       0.000000776   0.167820642   0.167824170
Si       0.083909021   0.083910919   0.083913688
Si       0.251736000   0.251734820   0.083916194
Si       0.251732960   0.083914932   0.251734556
Si       0.083912915   0.251735216   0.251735895
Si      -0.000002798   0.000001290   0.335643126
Si       0.167822163   0.167826609   0.335643876
Si       0.167824288   0.000000234   0.503471094
Si      -0.000001188   0.167825557   0.503470678
Si       0.083909439   0.083913904   0.419555834
Si       0.251735365   0.251739587   0.419555389
Si       0.251737765   0.083911570   0.587385004
Si       0.083908737   0.251738169   0.587382310
Si      -0.000002547  -0.000000089   0.671299334
Si       0.167823117   0.167824254   0.671296923
Si       0.167823359  -0.000002728   0.839124502
Si      -0.000003070   0.167822444   0.839123509
Si       0.083908962   0.083910756   0.755211266
Si       0.251738468   0.251735319   0.755210194
Si       0.251736141   0.083910301   0.923035607
Si       0.083909312   0.251733153   0.923035576
Si      -0.000000964   0.335643671   0.000001039
Si       0.167827521   0.503473099   0.000001122
Si       0.167825105   0.335645944   0.167828455
Si       0.000001179   0.503472483   0.167829437
Si       0.083913437   0.419557870   0.083915411
Si       0.251737507   0.587383124   0.083912483
Si       0.251737175   0.419557938   0.251738539
Si       0.083911897   0.587383939   0.251738555
Si       0.000003056   0.335648357   0.335648220
Si       0.167824303   0.503470239   0.335649592
Si       0.167821771   0.335650829   0.503468008
Si       0.000001285   0.503471411   0.503470614
Si       0.083912691   0.419560326   0.419558206
Si       0.251735856   0.587381653   0.419561366
Si       0.251736254   0.419563195   0.587381493
Si       0.083913447   0.587384386   0.587383635
Si      -0.000002219   0.335648570   0.671294659
Si       0.167824070   0.503475922   0.671294209
Si       0.167823910   0.335647342   0.839122073
Si      -0.000001368   0.503472095   0.839118901
Si       0.083909616   0.419560470   0.755206486
Si       0.251738754   0.587390427   0.755207384
Si       0.251739613   0.419561708   0.923034162
Si       0.083914161   0.587388641   0.923031281
Si       0.000000634   0.671302646   0.000000538
Si       0.167819730   0.839122916  -0.000001523
Si       0.167822290   0.671296772   0.167825148
Si      -0.000001815   0.839123547   0.167823272
Si       0.083909059   0.755212173   0.083912538
Si       0.251731753   0.923036571   0.083909909
Si       0.251734016   0.755207629   0.251736827
Si       0.083906861   0.923035775   0.251733092
Si      -0.000001115   0.671295904   0.335647418
Si       0.167821439   0.839121032   0.335646477
Si       0.167825068   0.671293574   0.503473589
Si      -0.000001802   0.839120436   0.503470596
Si       0.083909924   0.755207333   0.419559120
Si       0.251737956   0.923033049   0.419559996
Si       0.251739872   0.755206272   0.587388087
Si       0.083911073   0.923032006   0.587386345
Si       0.000002918   0.671296902   0.671297294
Si       0.167826504   0.839118277   0.671300621
Si       0.167825796   0.671300432   0.839118328
Si       0.000001613   0.839122592   0.839123381
Si       0.083915185   0.755209567   0.755211318
Si       0.251738037   0.923029535   0.755210751
Si       0.251734472   0.755209019   0.923028613
Si       0.083909801   0.923033075   0.923035294
Si       0.335645117   0.000002733  -0.000002084
Si       0.503470952   0.167826638  -0.000003420
Si       0.503472095  -0.000000372   0.167826020
Si       0.335645625   0.167826093   0.167825438
Si       0.419557066   0.083914129   0.083910744
Si       0.587382571   0.251738481   0.083911003
Si       0.587385785   0.083913258   0.251739126
Si       0.419557616   0.251739522   0.251736837
Si       0.335648711   0.000000850   0.335647854
Si       0.503471821   0.167825916   0.335649893
Si       0.503474804  -0.000001386   0.503474640
Si       0.335650239   0.167825343   0.503470982
Si       0.419561471   0.083913206   0.419559508
Si       0.587383199   0.251733646   0.419561391
Si       0.587386555   0.083911447   0.587386405
Si       0.419563776   0.251736532   0.587384755
Si       0.335651549  -0.000002576   0.671299161
Si       0.503475805   0.167823067   0.671298344
Si       0.503472645   0.000001611   0.839116551
Si       0.335651608   0.167823024   0.839122166
Si       0.419563905   0.083910633   0.755209687
Si       0.587385099   0.251735957   0.755210255
Si       0.587384869   0.083914158   0.923028398
Si       0.419562706   0.251736916   0.923031958
Si       0.335651837   0.335648850   0.000001479
Si       0.503471026   0.503472401   0.000000199
Si       0.503468495   0.335651116   0.167824004
Si       0.335649954   0.503469667   0.167825066
Si       0.419561200   0.419560627   0.083913210
Si       0.587382233   0.587384136   0.083911574
Si       0.587379815   0.419560394   0.251734993
Si       0.419561601   0.587381286   0.251736058
Si       0.335646963   0.335649755   0.335646208
Si       0.503469123   0.503471295   0.335646758
Si       0.503472192   0.335647200   0.503472391
Si       0.335646982   0.503473557   0.503470502
Si       0.419558144   0.419560055   0.419557477
Si       0.587381693   0.587386888   0.419561138
Si       0.587383364   0.419560301   0.587387487
Si       0.419559198   0.587388032   0.587386632
Si       0.335651934   0.335649398   0.671297247
Si       0.503472188   0.503473252   0.671299638
Si       0.503473386   0.335648187   0.839120950
Si       0.335652627   0.503475187   0.839121340
Si       0.419564109   0.419561847   0.755210307
Si       0.587381156   0.587383013   0.755209012
Si       0.587381893   0.419560200   0.923031500
Si       0.419561207   0.587383487   0.923032435
Si       0.335649666   0.671294587  -0.000002312
Si       0.503472987   0.839119047  -0.000001301
Si       0.503473962   0.671294267   0.167823761
Si       0.335647935   0.839120515   0.167824804
Si       0.419562352   0.755206047   0.083910995
Si       0.587386288   0.923031634   0.083912784
Si       0.587385628   0.755208803   0.251737518
Si       0.419561391   0.923032942   0.251739538
Si       0.335648978   0.671294602   0.335650464
Si       0.503474316   0.839119861   0.335651069
Si       0.503470259   0.671300135   0.503473919
Si       0.335652610   0.839119161   0.503474949
Si       0.419563232   0.755208844   0.419563603
Si       0.587385755   0.923031038   0.419562195
Si       0.587380527   0.755210047   0.587383790
Si       0.419562659   0.923030728   0.587387335
Si       0.335649064   0.671298521   0.671297572
Si       0.503470309   0.839121034   0.671295689
Si       0.503469989   0.671294238   0.839119584
Si       0.335646674   0.839120063   0.839117088
Si       0.419557714   0.755207972   0.755206167
Si       0.587382271   0.923035304   0.755206189
Si       0.587382654   0.755207653   0.923031619
Si       0.419558780   0.923034057   0.923029087
Si       0.671299931   0.000001549  -0.000001597
Si       0.839123694   0.167820886  -0.000000155
Si       0.839126918   0.000000236   0.167823345
Si       0.671300088   0.167824551   0.167824903
Si       0.755214061   0.083912320   0.083911144
Si       0.923034441   0.251731028   0.083912498
Si       0.923035673   0.083910542   0.251734165
Si       0.755210744   0.251733525   0.251735997
Si       0.671298607  -0.000000349   0.335651998
Si       0.839122341   0.167821515   0.335646634
Si       0.839118321   0.000002063   0.503470087
Si       0.671295716   0.167820807   0.503473566
Si       0.755208550   0.083910674   0.419561082
Si       0.923036235   0.251735043   0.419559418
Si       0.923030951   0.083913209   0.587384726
Si       0.755207568   0.251733839   0.587387065
Si       0.671294221   0.000002066   0.671296050
Si       0.839119619   0.167823956   0.671298083
Si       0.839122479   0.000001345   0.839123009
Si       0.671296070   0.167824775   0.839118765
Si       0.755207605   0.083913494   0.755209321
Si       0.923030659   0.251736371   0.755208381
Si       0.923032886   0.083910678   0.923035678
Si       0.755209091   0.251734336   0.923030410
Si       0.671294898   0.335648776  -0.000002581
Si       0.839118935   0.503471568  -0.000001084
Si       0.839122388   0.335645084   0.167825647
Si       0.671294035   0.503473792   0.167822765
Si       0.755207563   0.419559681   0.083910758
Si       0.923032121   0.587388444   0.083914696
Si       0.923035322   0.419560130   0.251739572
Si       0.755210991   0.587388394   0.251736693
Si       0.671295689   0.335645883   0.335647445
Si       0.839124394   0.503474402   0.335648684
Si       0.839123964   0.335648391   0.503473726
Si       0.671295703   0.503473542   0.503474445
Si       0.755210497   0.419562065   0.419560447
Si       0.923034225   0.587383861   0.419557852
Si       0.923034950   0.419559192   0.587384947
Si       0.755207512   0.587383314   0.587384265
Si       0.671294796   0.335646764   0.671300012
Si       0.839120886   0.503470473   0.671296345
Si       0.839119727   0.335646757   0.839119194
Si       0.671293289   0.503470978   0.839119766
Si       0.755206955   0.419557925   0.755209140
Si       0.923033370   0.587384308   0.755208473
Si       0.923031259   0.419557861   0.923031524
Si       0.755206545   0.587383485   0.923032464
Si       0.671294635   0.671294980   0.000000795
Si       0.839125377   0.839123408   0.000001722
Si       0.839121419   0.671300449   0.167827046
Si       0.671297959   0.839119442   0.167826714
Si       0.755210522   0.755209037   0.083916139
Si       0.923036738   0.923034416   0.083913121
Si       0.923032145   0.755210459   0.251735316
Si       0.755212107   0.923031876   0.251737709
Si       0.671296835   0.671300290   0.335647493
Si       0.839122106   0.839121103   0.335646312
Si       0.839121500   0.671295928   0.503469841
Si       0.671294311   0.839121978   0.503471199
Si       0.755208827   0.755210511   0.419557786
Si       0.923031217   0.923033812   0.419555821
Si       0.923033879   0.755209050   0.587383517
Si       0.755205820   0.923035537   0.587383413
Si       0.671293354   0.671296405   0.671296948
Si       0.839120590   0.839122508   0.671297918
Si       0.839121234   0.671298291   0.839121138
Si       0.671295927   0.839122292   0.839119072
Si       0.755207512   0.755209709   0.755209090
Si       0.923034016   0.923034826   0.755211770
Si       0.923035773   0.755212403   0.923033985
Si       0.755211717   0.923035578   0.923032571
K_POINTS {automatic}
  3 3 3 0 0 0

