
&control
  prefix = 'Si',
  pseudo_dir = './pseudo',
  outdir = './',
  max_seconds=14e3,

  calculation = 'nscf'
  restart_mode = 'from_scratch',
  tprnfor = .true.
  forc_conv_thr = 1.0d-4
  wf_collect = .true.
/
&system    
  ibrav=  0, celldm(1) = 30.7893077475, nat = 216, ntyp= 1,
  ecutwfc = 75.0,
  ecutrho = 450.0,
  nbnd = 528,
  occupations='smearing', smearing='gauss', degauss=0.001
  la2F = .true.
  nosym = .true.
/
&electrons
  mixing_mode = 'plain'
  mixing_beta = 0.7 
  conv_thr =  1.0d-8
/
CELL_PARAMETERS (alat)
   1.006896307   0.000000000   0.000000000
   0.000000000   1.006896307   0.000000000
   0.000000000   0.000000000   1.006896307
ATOMIC_SPECIES
 Si  28.08550  Si.pbe-n-kjpaw_psl.0.1.UPF

ATOMIC_POSITIONS (alat)
Si      -0.000000000   0.000000000   0.000000000
Si       0.167816050   0.167816050   0.000000000
Si       0.167816050   0.000000000   0.167816051
Si      -0.000000000   0.167816051   0.167816051
Si       0.083908026   0.083908026   0.083908027
Si       0.251724076   0.251724076   0.083908027
Si       0.251724076   0.083908026   0.251724077
Si       0.083908026   0.251724077   0.251724077
Si       0.000000000   0.000000000   0.335632103
Si       0.167816050   0.167816051   0.335632103
Si       0.167816050   0.000000000   0.503448153
Si      -0.000000000   0.167816050   0.503448153
Si       0.083908026   0.083908026   0.419540127
Si       0.251724077   0.251724076   0.419540127
Si       0.251724077   0.083908026   0.587356179
Si       0.083908026   0.251724076   0.587356179
Si      -0.000000000   0.000000000   0.671264204
Si       0.167816051   0.167816050   0.671264204
Si       0.167816051   0.000000000   0.839080256
Si      -0.000000000   0.167816050   0.839080256
Si       0.083908026   0.083908026   0.755172230
Si       0.251724077   0.251724076   0.755172230
Si       0.251724077   0.083908026   0.922988280
Si       0.083908026   0.251724076   0.922988281
Si      -0.000000000   0.335632102   0.000000001
Si       0.167816050   0.503448153   0.000000001
Si       0.167816050   0.335632102   0.167816051
Si      -0.000000000   0.503448153   0.167816051
Si       0.083908026   0.419540127   0.083908027
Si       0.251724076   0.587356179   0.083908027
Si       0.251724076   0.419540127   0.251724077
Si       0.083908026   0.587356179   0.251724077
Si      -0.000000000   0.335632103   0.335632102
Si       0.167816050   0.503448153   0.335632102
Si       0.167816051   0.335632102   0.503448153
Si      -0.000000000   0.503448153   0.503448152
Si       0.083908026   0.419540127   0.419540126
Si       0.251724076   0.587356180   0.419540127
Si       0.251724077   0.419540126   0.587356179
Si       0.083908026   0.587356180   0.587356178
Si      -0.000000000   0.335632101   0.671264203
Si       0.167816051   0.503448153   0.671264203
Si       0.167816051   0.335632102   0.839080256
Si      -0.000000000   0.503448153   0.839080257
Si       0.083908026   0.419540126   0.755172230
Si       0.251724077   0.587356180   0.755172230
Si       0.251724077   0.419540127   0.922988281
Si       0.083908026   0.587356180   0.922988282
Si      -0.000000000   0.671264204   0.000000001
Si       0.167816050   0.839080257   0.000000001
Si       0.167816050   0.671264204   0.167816051
Si      -0.000000000   0.839080256   0.167816051
Si       0.083908026   0.755172230   0.083908027
Si       0.251724076   0.922988281   0.083908027
Si       0.251724076   0.755172230   0.251724077
Si       0.083908026   0.922988281   0.251724077
Si      -0.000000000   0.671264204   0.335632102
Si       0.167816050   0.839080256   0.335632103
Si       0.167816051   0.671264204   0.503448152
Si      -0.000000000   0.839080257   0.503448153
Si       0.083908026   0.755172230   0.419540127
Si       0.251724076   0.922988281   0.419540128
Si       0.251724077   0.755172231   0.587356179
Si       0.083908026   0.922988281   0.587356179
Si      -0.000000000   0.671264205   0.671264203
Si       0.167816051   0.839080257   0.671264203
Si       0.167816051   0.671264205   0.839080257
Si      -0.000000000   0.839080257   0.839080257
Si       0.083908026   0.755172231   0.755172230
Si       0.251724077   0.922988281   0.755172230
Si       0.251724077   0.755172230   0.922988281
Si       0.083908026   0.922988281   0.922988281
Si       0.335632103   0.000000001  -0.000000000
Si       0.503448154   0.167816051  -0.000000000
Si       0.503448153   0.000000000   0.167816051
Si       0.335632102   0.167816051   0.167816051
Si       0.419540127   0.083908026   0.083908026
Si       0.587356180   0.251724077   0.083908026
Si       0.587356180   0.083908027   0.251724077
Si       0.419540127   0.251724077   0.251724077
Si       0.335632102   0.000000000   0.335632103
Si       0.503448154   0.167816051   0.335632103
Si       0.503448154   0.000000000   0.503448154
Si       0.335632103   0.167816050   0.503448153
Si       0.419540127   0.083908026   0.419540128
Si       0.587356180   0.251724076   0.419540128
Si       0.587356179   0.083908026   0.587356180
Si       0.419540128   0.251724076   0.587356179
Si       0.335632103   0.000000000   0.671264204
Si       0.503448154   0.167816050   0.671264204
Si       0.503448154   0.000000001   0.839080255
Si       0.335632103   0.167816050   0.839080256
Si       0.419540128   0.083908026   0.755172230
Si       0.587356180   0.251724076   0.755172230
Si       0.587356180   0.083908026   0.922988280
Si       0.419540128   0.251724076   0.922988280
Si       0.335632103   0.335632102   0.000000000
Si       0.503448154   0.503448153   0.000000000
Si       0.503448154   0.335632103   0.167816051
Si       0.335632103   0.503448153   0.167816051
Si       0.419540127   0.419540127   0.083908026
Si       0.587356180   0.587356179   0.083908027
Si       0.587356180   0.419540127   0.251724077
Si       0.419540127   0.587356179   0.251724077
Si       0.335632103   0.335632102   0.335632103
Si       0.503448154   0.503448153   0.335632103
Si       0.503448154   0.335632102   0.503448153
Si       0.335632103   0.503448153   0.503448153
Si       0.419540127   0.419540127   0.419540127
Si       0.587356180   0.587356179   0.419540127
Si       0.587356180   0.419540126   0.587356179
Si       0.419540128   0.587356180   0.587356179
Si       0.335632103   0.335632102   0.671264203
Si       0.503448154   0.503448153   0.671264204
Si       0.503448154   0.335632102   0.839080256
Si       0.335632103   0.503448153   0.839080257
Si       0.419540128   0.419540126   0.755172230
Si       0.587356180   0.587356180   0.755172230
Si       0.587356180   0.419540127   0.922988281
Si       0.419540128   0.587356179   0.922988281
Si       0.335632103   0.671264204   0.000000000
Si       0.503448154   0.839080257  -0.000000000
Si       0.503448154   0.671264204   0.167816051
Si       0.335632102   0.839080256   0.167816051
Si       0.419540127   0.755172230   0.083908027
Si       0.587356180   0.922988281   0.083908026
Si       0.587356180   0.755172230   0.251724077
Si       0.419540127   0.922988281   0.251724077
Si       0.335632103   0.671264204   0.335632103
Si       0.503448153   0.839080256   0.335632104
Si       0.503448154   0.671264204   0.503448153
Si       0.335632103   0.839080257   0.503448153
Si       0.419540127   0.755172231   0.419540128
Si       0.587356180   0.922988281   0.419540128
Si       0.587356180   0.755172231   0.587356179
Si       0.419540128   0.922988281   0.587356179
Si       0.335632103   0.671264205   0.671264203
Si       0.503448154   0.839080257   0.671264204
Si       0.503448154   0.671264204   0.839080256
Si       0.335632103   0.839080257   0.839080256
Si       0.419540128   0.755172231   0.755172230
Si       0.587356180   0.922988282   0.755172230
Si       0.587356180   0.755172231   0.922988281
Si       0.419540128   0.922988281   0.922988280
Si       0.671264204   0.000000000  -0.000000001
Si       0.839080256   0.167816051   0.000000000
Si       0.839080257   0.000000000   0.167816051
Si       0.671264204   0.167816051   0.167816051
Si       0.755172231   0.083908026   0.083908026
Si       0.922988281   0.251724077   0.083908027
Si       0.922988281   0.083908026   0.251724077
Si       0.755172231   0.251724077   0.251724077
Si       0.671264205   0.000000000   0.335632104
Si       0.839080257   0.167816051   0.335632103
Si       0.839080256   0.000000001   0.503448153
Si       0.671264204   0.167816050   0.503448154
Si       0.755172230   0.083908026   0.419540128
Si       0.922988281   0.251724076   0.419540127
Si       0.922988280   0.083908026   0.587356179
Si       0.755172230   0.251724076   0.587356179
Si       0.671264204   0.000000000   0.671264204
Si       0.839080256   0.167816050   0.671264204
Si       0.839080256   0.000000000   0.839080256
Si       0.671264204   0.167816050   0.839080256
Si       0.755172230   0.083908026   0.755172230
Si       0.922988280   0.251724076   0.755172230
Si       0.922988280   0.083908026   0.922988281
Si       0.755172230   0.251724076   0.922988281
Si       0.671264204   0.335632102   0.000000000
Si       0.839080256   0.503448153   0.000000001
Si       0.839080256   0.335632103   0.167816051
Si       0.671264205   0.503448153   0.167816051
Si       0.755172230   0.419540127   0.083908027
Si       0.922988281   0.587356179   0.083908027
Si       0.922988281   0.419540127   0.251724077
Si       0.755172231   0.587356179   0.251724077
Si       0.671264204   0.335632103   0.335632103
Si       0.839080257   0.503448153   0.335632102
Si       0.839080256   0.335632102   0.503448153
Si       0.671264204   0.503448153   0.503448153
Si       0.755172230   0.419540127   0.419540127
Si       0.922988281   0.587356179   0.419540126
Si       0.922988280   0.419540126   0.587356178
Si       0.755172230   0.587356179   0.587356179
Si       0.671264204   0.335632102   0.671264204
Si       0.839080255   0.503448153   0.671264203
Si       0.839080256   0.335632102   0.839080257
Si       0.671264204   0.503448153   0.839080256
Si       0.755172230   0.419540126   0.755172230
Si       0.922988280   0.587356180   0.755172230
Si       0.922988280   0.419540126   0.922988282
Si       0.755172230   0.587356180   0.922988281
Si       0.671264204   0.671264204   0.000000000
Si       0.839080256   0.839080256   0.000000000
Si       0.839080257   0.671264204   0.167816051
Si       0.671264205   0.839080256   0.167816051
Si       0.755172230   0.755172230   0.083908026
Si       0.922988281   0.922988281   0.083908026
Si       0.922988281   0.755172230   0.251724077
Si       0.755172231   0.922988281   0.251724077
Si       0.671264205   0.671264204   0.335632103
Si       0.839080257   0.839080256   0.335632103
Si       0.839080256   0.671264204   0.503448153
Si       0.671264204   0.839080257   0.503448154
Si       0.755172230   0.755172230   0.419540127
Si       0.922988281   0.922988281   0.419540127
Si       0.922988280   0.755172231   0.587356179
Si       0.755172230   0.922988281   0.587356180
Si       0.671264204   0.671264205   0.671264204
Si       0.839080256   0.839080257   0.671264204
Si       0.839080256   0.671264205   0.839080257
Si       0.671264204   0.839080257   0.839080256
Si       0.755172230   0.755172231   0.755172230
Si       0.922988280   0.922988281   0.755172230
Si       0.922988280   0.755172231   0.922988281
Si       0.755172230   0.922988281   0.922988280
K_POINTS {automatic}
  3 3 3 0 0 0

