GaN_ONH                                 
    1.000000000000000     
    15.8909244537000003    0.0000000000000000    0.0000000000000000
     0.0000000000000000   16.5143318175999987    0.0000000000000000
     0.0000000000000000    0.0000000000000000   15.4982528686999999
   Ga   N    O    H 
   180   179     1     1
Direct
  0.0997862555170082  0.0557399192413897  0.3333061095714867
  0.0995338015153044  0.0549585215364999  0.6669890992075022
  0.0998512211853945  0.0553809650172677  0.0001510345245639
  0.1001712090348635  0.3890325512453185  0.3336271598505068
  0.0998725094868037  0.3885958769883462  0.6667859614605856
  0.0998121171242050  0.3887846527839042  0.0003883119232379
  0.1000876685063774  0.7225051889457209  0.3328500916371485
  0.0998911808480546  0.7217593941710860  0.6663257375725270
  0.1000421829086028  0.7221136081299251  0.9993863757307998
  0.2999208647756269  0.0554580866765984  0.3334758463466069
  0.2998278741155072  0.0548200996989020  0.6668987826566195
  0.2999650939749570  0.0552450458953067  0.0002259807724148
  0.3003280689419432  0.3892648690088962  0.3347547524374308
  0.2979760934208762  0.3851167856474101  0.6707042445409233
  0.3000603634155051  0.3887311636809073  0.0002223005266337
  0.2997634409198068  0.7228838670375521  0.3334950946171754
  0.3003304921202790  0.7215967191014957  0.6652711401019515
  0.3000275047769199  0.7225062377698881  0.9983657052960324
  0.5000791432281296  0.0554580820199523  0.3334759006821282
  0.5001721288569280  0.0548201119377283  0.6668988674427030
  0.5000349076923029  0.0552450446724976  0.0002260003880123
  0.4996719344364570  0.3892648539537502  0.3347546053584392
  0.5020239413135926  0.3851170497305774  0.6707044541609061
  0.4999396500365202  0.3887311719354140  0.0002222771103974
  0.5002365956186786  0.7228838867173301  0.3334952159087106
  0.4996695010940895  0.7215967249697544  0.6652710017262773
  0.4999725148782483  0.7225062155244835  0.9983656929502241
  0.7002137381533720  0.0557399170797339  0.3333062419944767
  0.7004661979955055  0.0549585338940665  0.6669893435379884
  0.7001487957927561  0.0553809609840526  0.0001511262381961
  0.6998288041703367  0.3890325412298049  0.3336270710721231
  0.7001274853250857  0.3885958844268075  0.6667860044027383
  0.7001879023270189  0.3887846460041137  0.0003884078380277
  0.6999123269878210  0.7225051957594359  0.3328500672297651
  0.7001088215870118  0.7217593712899391  0.6663258047186023
  0.6999578296891295  0.7221136031721079  0.9993863523431593
  0.8999999914750817  0.0556643069244263  0.3333970264396589
  0.8999999983182524  0.0552690929659075  0.6667913184764956
  0.9000000010002084  0.0554268180563915  0.0000859657640950
  0.9000000011606304  0.3890927047495475  0.3333756421423641
  0.8999999897060811  0.3888720462745964  0.6667035970242734
  0.8999999988357114  0.3889646662878478  0.0001148958994203
  0.8999999806794803  0.7222164443879802  0.3329092360478776
  0.8999999902613750  0.7217991504589464  0.6664407263301932
  0.9000000073610037  0.7220543352818461  0.9997455411166342
  0.9999399946538904  0.2224311850696270  0.3335739615582640
  0.9998380183134286  0.2220685110100591  0.6669539856285145
  0.9999214833224478  0.2221831977304770  0.0002633285678140
  0.9999631609472411  0.5555686916849003  0.3331007784433431
  0.0002576665648471  0.5552791076746002  0.6661773325492099
 -0.0000121837212675  0.5554977467574201  0.9997037881288637
  0.9999244232202301  0.8889827218050510  0.3331194368245285
  0.9998423502763186  0.8884439517472693  0.6666154495538937
  0.9999345097430778  0.8887725780293610  0.9998604568201724
  0.2000187287350431  0.2222385033000837  0.3335335835554333
  0.1992002515292349  0.2206593658742077  0.6674551815036933
  0.1997697933833844  0.2218944040563993  0.0007919774124718
  0.1999854207993332  0.5555951027860507  0.3316845006461469
  0.2008609057015860  0.5548427760894117  0.6656575200296004
  0.1996613020479165  0.5553975028566389  0.9990441164033799
  0.1996278763270599  0.8893138418835800  0.3330507685147425
  0.1998002251989478  0.8887775999311786  0.6667918211672257
  0.1999246693146228  0.8887881726235871  0.9995682015785015
  0.4000000126861755  0.2220528158680569  0.3339909818302738
  0.4000000097613258  0.2209127430077746  0.6676725399540164
  0.3999999901724482  0.2216429567300754  0.0011244949653095
  0.3999999907967652  0.5605978521881321  0.3216243879812418
  0.3999999842685237  0.5511366063393701  0.6640097232604132
  0.4000000240576193  0.5552476132636135  0.9992934349059732
  0.4000000098624103  0.8890866056285989  0.3328932472606559
  0.3999999893393248  0.8885355026325161  0.6660384948811540
  0.4000000089446180  0.8887362032144078  0.9996294344707758
  0.5999812697369574  0.2222384919894824  0.3335336009203781
  0.6007997431162865  0.2206593904069140  0.6674555417860688
  0.6002302114400495  0.2218944015333758  0.0007920988691919
  0.6000145757763246  0.5555950966972862  0.3316845101146959
  0.5991391235867259  0.5548427621237509  0.6656571705934726
  0.6003386905201084  0.5553975309224929  0.9990442845225115
  0.6003721441020452  0.8893138504532881  0.3330509771956912
  0.6001997524708876  0.8887776062279525  0.6667919388761208
  0.6000753419328770  0.8887881701007435  0.9995682532254940
  0.8000600035994432  0.2224311761257305  0.3335740082054119
  0.8001619641798652  0.2220685210029034  0.6669540587809855
  0.8000785103038759  0.2221831975780977  0.0002633725451254
  0.8000368327414165  0.5555686919521705  0.3331007832997458
  0.7997423086052829  0.5552791078678875  0.6661772235649609
  0.8000121674994018  0.5554977542449763  0.9997037927792484
  0.8000755506576530  0.8889827239959517  0.3331194904584869
  0.8001576433598048  0.8884439515697473  0.6666155425736136
  0.8000654952860042  0.8887725719319549  0.9998604988167511
  0.0998993979317989  0.2778795638606255  0.1671038673182373
  0.0999831168447609  0.2779749748859546  0.5002890102572228
  0.0998801332043698  0.2775798836813622  0.8337705032227295
  0.0997582809210226  0.6112372034456290  0.1662173779548877
  0.1008801816307340  0.6111337658470869  0.4992200048296384
  0.1001647331934027  0.6108351041994239  0.8325837184604081
  0.0998669814704808  0.9446129598217605  0.1664602910373423
  0.0988631098939092  0.9453862781283230  0.5000615781480485
  0.0998333878815004  0.9441594818239155  0.8333642219234503
  0.3000319863322541  0.2778857638454646  0.1673303870719009
  0.2990131760577016  0.2749408383143260  0.5009918060421448
  0.2996860889795973  0.2764131382896901  0.8351004986192035
  0.2985190124369695  0.6122712190917290  0.1631096764043284
  0.2983030240129523  0.6171094075062602  0.4974843224423955
  0.3004791608519207  0.6104617021693042  0.8323076183900434
  0.2999307055248261  0.9444531905924289  0.1664505946291866
  0.2996158953558887  0.9447299692917808  0.4997862629674640
  0.3000383383734334  0.9441005564267595  0.8332193370359590
  0.4999680196692208  0.2778857627933565  0.1673303764017503
  0.5009868558562560  0.2749408719589664  0.5009921547313408
  0.5003139222165540  0.2764131488222678  0.8351006452570939
  0.5014809774162355  0.6122712953320512  0.1631100426984939
  0.5016969673795947  0.6171095079915837  0.4974845195305471
  0.4995208668001372  0.6104617064050051  0.8323073910699792
  0.5000693205254512  0.9444531848532940  0.1664506383989892
  0.5003841365940624  0.9447299685979763  0.4997864228681433
  0.4999616808469499  0.9441005504649934  0.8332193271616644
  0.7001006030739072  0.2778795598290399  0.1671039224147064
  0.7000168633553429  0.2779749722984901  0.5002890291718094
  0.7001198891022978  0.2775798950428545  0.8337705658955668
  0.7002417057296315  0.6112372087457979  0.1662174549119184
  0.6991198221412246  0.6111337575420750  0.4992197522380748
  0.6998352445858336  0.6108350913852012  0.8325836361703390
  0.7001330334296778  0.9446129552172533  0.1664603750394899
  0.7011368994873818  0.9453862782540392  0.5000620469935526
  0.7001666113420982  0.9441594872601521  0.8333643303623456
  0.8999999945292128  0.2780024381906561  0.1668530896543151
  0.8999999879481380  0.2783163189771969  0.5002101954053304
  0.9000000082700640  0.2777822418354053  0.8335490397073351
  0.8999999912644627  0.6111092091414857  0.1664375688826143
  0.9000000003826073  0.6109304571992320  0.4996606452929303
  0.8999999834684909  0.6108679464028884  0.8329426931245074
  0.9000000065112397  0.9445265605055556  0.1665967424966789
  0.8999999915755701  0.9445740899867465  0.4999344628098101
  0.8999999877303392  0.9442552851630009  0.8332992365352108
  0.9999146226780442  0.1112388330079763  0.1667996732889025
  0.9996674124674247  0.1116481880935064  0.5001996524246589
  0.9998948199751632  0.1109488838231796  0.8335607953420686
  0.0000097896469559  0.4445873727884939  0.1667373330422260
  0.0003203203794108  0.4445232297645945  0.4998974273169236
  0.9999150868446189  0.4443899136547785  0.8332848544970474
  0.0000150901523970  0.7778560188140672  0.1663210172020295
  0.9995598558444856  0.7776514170402431  0.4996900388962294
  0.9999547448079882  0.7775297631603116  0.8331200133237645
  0.1999719485622327  0.1110467069240890  0.1669141792111029
  0.1993662212114504  0.1103766156307851  0.5002380955725707
  0.1997840566958276  0.1104377338818717  0.8338368898084978
  0.2000575553828707  0.4444809111069283  0.1666299620212548
  0.2013986541816140  0.4442270503372164  0.5005796349210266
  0.1993969966052605  0.4442362890926737  0.8340405778060694
  0.1998742630766803  0.7781948739477225  0.1661246060624296
  0.1973687088516648  0.7810050483229681  0.5004044844381642
  0.2000129426126211  0.7774604630941844  0.8323537806404517
  0.4000000087742860  0.1109367816456764  0.1671233682773588
  0.4000000088823844  0.1102138148109293  0.5004293284265039
  0.4000000059156714  0.1104434197651752  0.8337902908367471
  0.3999999991649254  0.4448703498783776  0.1669359508611224
  0.4000000058784071  0.4321334970154815  0.5098270734398755
  0.4000000056470198  0.4435049957705008  0.8328730111207617
  0.4000000191036174  0.7778969544512567  0.1661202404071523
  0.3999999923770621  0.7791772865252000  0.4984561990912347
  0.4000000087382521  0.7774788154336553  0.8318995197741494
  0.6000280621012650  0.1110466955036270  0.1669142085245441
  0.6006337964790118  0.1103766209059429  0.5002383829009206
  0.6002159572886886  0.1104377280481072  0.8338370201168018
  0.5999424421494924  0.4444809164212608  0.1666299266662629
  0.5986013419909209  0.4442270358498259  0.5005792317465397
  0.6006030251189196  0.4442363123313824  0.8340408454269361
  0.6001257626924972  0.7781948793462710  0.1661246720967766
  0.6026313083826660  0.7810049849201013  0.5004048269537107
  0.5999870585800402  0.7774604524261006  0.8323537904926155
  0.8000853744839329  0.1112388354883650  0.1667997264698113
  0.8003325709983036  0.1116481925288986  0.5001998096316637
  0.8001051952939691  0.1109488934443555  0.8335608577819777
  0.7999902043888021  0.4445873821057925  0.1667373280681093
  0.7996796790340046  0.4445232288937905  0.4998973318075071
  0.8000848996152142  0.4443899178796674  0.8332848913266000
  0.7999849141579574  0.7778560213595985  0.1663210131088286
  0.8004401336296482  0.7776514244832379  0.4996901585719106
  0.8000452470047922  0.7775297618346305  0.8331200416748133
  0.0998803096145023  0.0557744866052532  0.1257557770475709
  0.0991069239662066  0.0560612355523760  0.4588753317431895
  0.0997350920192477  0.0552689045942311  0.7925783153237209
  0.0999983350625757  0.3888191542779782  0.1259565677885923
  0.1007239283396465  0.3892511039830350  0.4593671773994303
  0.0997578527706808  0.3885694763401033  0.7924377469958417
  0.0999989676893290  0.7222971673159730  0.1250635101822404
  0.0995259064197175  0.7223753165761158  0.4585987796141762
  0.0998369789502224  0.7218841435745773  0.7918567408350041
  0.2999770072265309  0.0556616985093093  0.1258390645233712
  0.2996853454117826  0.0557596687998554  0.4590727755516494
  0.2998832276672796  0.0552694629718363  0.7925538935978784
  0.3002713590887703  0.3889892816791371  0.1261722426437917
  0.2995723074127644  0.3856831246159350  0.4602747866273336
  0.2987610315308182  0.3873672956182427  0.7955133639099228
  0.2998627164528350  0.7233502173467096  0.1237459375610100
  0.2961751069114220  0.7287578552918922  0.4590200405274579
  0.2999696344775389  0.7215507977496162  0.7910307607110161
  0.5000230097644169  0.0556616991236191  0.1258390671205163
  0.5003146742118955  0.0557596661152060  0.4590728147617103
  0.5001168072662139  0.0552694636978866  0.7925539118645285
  0.4997286533143854  0.3889892817839495  0.1261722284388457
  0.5004276768001683  0.3856831083595047  0.4602747586607275
  0.5012389969345664  0.3873672815717022  0.7955134425121529
  0.5001373108841940  0.7233502133458286  0.1237459584984814
  0.5038249225739663  0.7287578688386643  0.4590200921034129
  0.5000303802897693  0.7215508174167498  0.7910307141647800
  0.7001197041699311  0.0557744822652608  0.1257557902897722
  0.7008930859686401  0.0560612076180637  0.4588754042348174
  0.7002649128134208  0.0552689028675266  0.7925783651227650
  0.7000016578838254  0.3888191483036808  0.1259565835488914
  0.6992760949751412  0.3892511047875638  0.4593671220961432
  0.7002421384487129  0.3885694682675032  0.7924377796320716
  0.7000010504056172  0.7222971605665791  0.1250635108969822
  0.7004740863541861  0.7223753195640900  0.4585987882207235
  0.7001630237094246  0.7218841515221941  0.7918567457197063
  0.8999999954234096  0.0556553231026249  0.1257243770390974
  0.8999999935118704  0.0557834590407361  0.4590533909027842
  0.8999999911667754  0.0553913572965416  0.7924300360063309
  0.8999999894325891  0.3889766818233977  0.1257362112159977
  0.9000000046938030  0.3892830932860808  0.4590644501275141
  0.8999999969281268  0.3887679260962628  0.7923256431548887
  0.9000000057106227  0.7222335948849309  0.1253933398932766
  0.8999999884085653  0.7219338863529384  0.4585369005459786
  0.8999999899142880  0.7219503904753007  0.7920374358219814
  0.9999574002834225  0.2223380030386863  0.1258878170860827
  0.9998254238229556  0.2227328220229553  0.4592081978187398
  0.9999079676491531  0.2220968659635229  0.7925913249458020
  0.9998998687096463  0.5556159139598467  0.1253469187937719
  0.0005626868123720  0.5556502099656547  0.4588325625000894
  0.0000596711369395  0.5553881273480263  0.7918284299545105
  0.9999234353934860  0.8889180963927652  0.1254761168304847
  0.9996726685464511  0.8887577457707523  0.4587890399088256
  0.9999027819724204  0.8885297487905907  0.7922355721710853
  0.1999597724110118  0.2222951337741368  0.1263712109356886
  0.1990511201347492  0.2211777612821234  0.4591022554203976
  0.1996484273656913  0.2215277901090019  0.7930609997248309
  0.1991612401744708  0.5552686545603133  0.1243370389480331
  0.2025080299581511  0.5555276689200259  0.4577843194240205
  0.2002977099816760  0.5551348653923847  0.7914668009493629
  0.1998115821002419  0.8891834774331737  0.1251860063960681
  0.1986083066503596  0.8911846665226659  0.4586170376661287
  0.1999031421316126  0.8887228399727432  0.7922917196326399
  0.4000000116190248  0.2221398664169670  0.1266189129933940
  0.4000000168266513  0.2212289231363515  0.4597072377918970
  0.4000000285570461  0.2217497270170345  0.7933263685515280
  0.4000000140803878  0.5561036326714016  0.1253071244753395
  0.3999999949402774  0.5545327157096452  0.7907545308620608
  0.4000000081958253  0.8890041143055761  0.1253171089731226
  0.4000000183742699  0.8903741716550719  0.4584548044543548
  0.4000000170146654  0.8886373699952631  0.7917087528686979
  0.6000402365886641  0.2222951291444148  0.1263712244242817
  0.6009488633044797  0.2211777471970758  0.4591022880050730
  0.6003515859176518  0.2215277724070318  0.7930610801834070
  0.6008387275497967  0.5552686556537019  0.1243371103612591
  0.5974919406164980  0.5555277065382810  0.4577842862603498
  0.5997022955303455  0.5551348492993236  0.7914667270267597
  0.6001884383333899  0.8891834739789664  0.1251860184668225
  0.6013917273266023  0.8911846299470330  0.4586171395163411
  0.6000968790225506  0.8887228355097582  0.7922917266301390
  0.8000425784048864  0.2223380010952307  0.1258878237615383
  0.8001745610948734  0.2227328178739842  0.4592082142310702
  0.8000920264677255  0.2220968574214097  0.7925913424342177
  0.8001001030706981  0.5556159127903578  0.1253469282224914
  0.7994373042849879  0.5556502119828108  0.4588325421879541
  0.7999403199664485  0.5553881214390465  0.7918284043718565
  0.8000765684275311  0.8889180956824468  0.1254761230053297
  0.8003273078767620  0.8887577415653450  0.4587890777360216
  0.8000971767861547  0.8885297492891261  0.7922355853153409
  0.1000396440046290  0.2778687717599025  0.2927143671771784
  0.0999802157577400  0.2773860570392915  0.6259978210066200
  0.1000045630142617  0.2776457264952708  0.9593928459288997
  0.0996640753018126  0.6113008832736661  0.2919821754196563
  0.1006780023290879  0.6105858449240311  0.6249506898661362
  0.0998619242051515  0.6110900549573181  0.9581771280166294
  0.0996487077888842  0.9448153059209162  0.2920150034547866
  0.0996028342488373  0.9440793157828663  0.6256776334399466
  0.0998449180478136  0.9443688483206387  0.9589586988514445
  0.3002691150158883  0.2781867067858286  0.2930306282701975
  0.2993013756647643  0.2752645356591801  0.6266262074231016
  0.2999947087794194  0.2771618453929298  0.9604480633615922
  0.2969521523543299  0.6130128491566620  0.2876196972837342
  0.3013973018942370  0.6100240169473643  0.6226979009025654
  0.2999992500814034  0.6109720548939699  0.9581680078366785
  0.2998534259286227  0.9445313562080558  0.2920720514352211
  0.2998090038898946  0.9439263868164449  0.6254415077104167
  0.2999858383973810  0.9442850698241178  0.9588486979227219
  0.4997308970887551  0.2781867004985947  0.2930306050766112
  0.5006986406530528  0.2752645827399826  0.6266263202061343
  0.5000053068506553  0.2771618425351492  0.9604480892774770
  0.5030478657374342  0.6130128469928252  0.2876198028450500
  0.4986027012440165  0.6100240116005947  0.6226978906709028
  0.5000007631217590  0.6109720461247312  0.9581679757538121
  0.5001465930063146  0.9445313475662385  0.2920720701228651
  0.5001910056135683  0.9439263900650048  0.6254415511933076
  0.5000141840805669  0.9442850697734335  0.9588486943253320
  0.6999603604908423  0.2778687708181350  0.2927143656876907
  0.7000197694104728  0.2773860438359541  0.6259978481144438
  0.6999954275194488  0.2776457244447326  0.9593928620007488
  0.7003359126356574  0.6113008773872605  0.2919821955880395
  0.6993219988119888  0.6105858675655370  0.6249506109220430
  0.7001380794761033  0.6110900568685775  0.9581771220592658
  0.7003512970733614  0.9448153191039603  0.2920150234070505
  0.7003971466082745  0.9440793230383665  0.6256777489900082
  0.7001550943326895  0.9443688575458381  0.9589587165277975
  0.8999999948739285  0.2779485549488384  0.2924722884809472
  0.8999999936358070  0.2777586676428072  0.6258619516725231
  0.8999999928379194  0.2777924473697636  0.9591717772819489
  0.8999999879786417  0.6111364105038291  0.2921246486876260
  0.8999999924842114  0.6107510413531690  0.6253143799806337
  0.8999999984961791  0.6110373166175569  0.9585929421956791
  0.8999999953515575  0.9446387554420063  0.2922225330189276
  0.8999999811278352  0.9442078891284060  0.6255919960422445
  0.8999999942080645  0.9443865322933453  0.9589383333285776
  0.9998737821588697  0.1114500672240304  0.2924011242959785
  0.9998537396316620  0.1110829245510596  0.6258403271987085
  0.9999350061647748  0.1111556319811962  0.9591925934856975
  0.0001431387657879  0.4444500655784508  0.2924082306875811
  0.0000879721310546  0.4441703960089233  0.6255473142844479
  0.0000100744277185  0.4443640955976018  0.9589275613859922
  0.9999055936396776  0.7778851869198544  0.2919578513295005
  0.9998840123969881  0.7773200288735420  0.6253520137766685
  0.9999376078609608  0.7776603632310921  0.9587294605367856
  0.1999892376946099  0.1112147177317408  0.2924850894544553
  0.1995609885025172  0.1100445402855474  0.6258613378914663
  0.1999199713703474  0.1109337592693820  0.9594484965540683
  0.2003911274367936  0.4442181149373154  0.2924842428846212
  0.2006488759973067  0.4433895484292149  0.6262000150699907
  0.1998056380171245  0.4441692788558306  0.9594197810909277
  0.1995932802273190  0.7784612902267650  0.2915641249211607
  0.1996095660090378  0.7775900480661648  0.6259409828325315
  0.1998046226349830  0.7777494763485577  0.9579782240146846
  0.3999999978477028  0.1111052994475475  0.2926995742034974
  0.4000000064210185  0.1101211593723668  0.6260657779474109
  0.4000000022620699  0.1108392258390011  0.9594302934595900
  0.4000000079837078  0.4466078448147349  0.2945258511628759
  0.3999999925994315  0.4360511516421361  0.6358622375227234
  0.4000000120502509  0.4441270937590895  0.9589150018329080
  0.4000000213146512  0.7778063018568971  0.2918274463328595
  0.4000000077318016  0.7774736179807105  0.6245292756192221
  0.4000000043842915  0.7778530490109925  0.9574683848401406
  0.6000107643203321  0.1112147154751390  0.2924850897535607
  0.6004390221027900  0.1100445507928703  0.6258614301063218
  0.6000800411104712  0.1109337615185272  0.9594485230127402
  0.5996088886684675  0.4442181239616511  0.2924842217778966
  0.5993511383769560  0.4433895427848544  0.6261999162561361
  0.6001943893748722  0.4441692818945426  0.9594198463166412
  0.6004067307966494  0.7784613018553783  0.2915641508196820
  0.6003904441726629  0.7775900599401604  0.6259410549083553
  0.6001953924358475  0.7777494910112687  0.9579782224942708
  0.8001262077564962  0.1114500751297549  0.2924011334441649
  0.8001462310756959  0.1110829200538181  0.6258403725185453
  0.8000649844373902  0.1111556377969108  0.9591926014167557
  0.7998568500734103  0.4444500736474634  0.2924082228749691
  0.7999120221565489  0.4441703957903835  0.6255472874647872
  0.7999899174991694  0.4443640982849408  0.9589275705830125
  0.8000943843843368  0.7778851888837269  0.2919578503774116
  0.8001159505458073  0.7773200420352626  0.6253520435131770
  0.8000623981266918  0.7776603720251889  0.9587294597639842
  0.4000000234222583  0.6079509788893457  0.4312404378619736
  0.4000000039555278  0.5239679029635967  0.5094488139212103
 
  0.00000000E+00  0.00000000E+00  0.00000000E+00
  0.00000000E+00  0.00000000E+00  0.00000000E+00
  0.00000000E+00  0.00000000E+00  0.00000000E+00
  0.00000000E+00  0.00000000E+00  0.00000000E+00
  0.00000000E+00  0.00000000E+00  0.00000000E+00
  0.00000000E+00  0.00000000E+00  0.00000000E+00
  0.00000000E+00  0.00000000E+00  0.00000000E+00
  0.00000000E+00  0.00000000E+00  0.00000000E+00
  0.00000000E+00  0.00000000E+00  0.00000000E+00
  0.00000000E+00  0.00000000E+00  0.00000000E+00
  0.00000000E+00  0.00000000E+00  0.00000000E+00
  0.00000000E+00  0.00000000E+00  0.00000000E+00
  0.00000000E+00  0.00000000E+00  0.00000000E+00
  0.00000000E+00  0.00000000E+00  0.00000000E+00
  0.00000000E+00  0.00000000E+00  0.00000000E+00
  0.00000000E+00  0.00000000E+00  0.00000000E+00
  0.00000000E+00  0.00000000E+00  0.00000000E+00
  0.00000000E+00  0.00000000E+00  0.00000000E+00
  0.00000000E+00  0.00000000E+00  0.00000000E+00
  0.00000000E+00  0.00000000E+00  0.00000000E+00
  0.00000000E+00  0.00000000E+00  0.00000000E+00
  0.00000000E+00  0.00000000E+00  0.00000000E+00
  0.00000000E+00  0.00000000E+00  0.00000000E+00
  0.00000000E+00  0.00000000E+00  0.00000000E+00
  0.00000000E+00  0.00000000E+00  0.00000000E+00
  0.00000000E+00  0.00000000E+00  0.00000000E+00
  0.00000000E+00  0.00000000E+00  0.00000000E+00
  0.00000000E+00  0.00000000E+00  0.00000000E+00
  0.00000000E+00  0.00000000E+00  0.00000000E+00
  0.00000000E+00  0.00000000E+00  0.00000000E+00
  0.00000000E+00  0.00000000E+00  0.00000000E+00
  0.00000000E+00  0.00000000E+00  0.00000000E+00
  0.00000000E+00  0.00000000E+00  0.00000000E+00
  0.00000000E+00  0.00000000E+00  0.00000000E+00
  0.00000000E+00  0.00000000E+00  0.00000000E+00
  0.00000000E+00  0.00000000E+00  0.00000000E+00
  0.00000000E+00  0.00000000E+00  0.00000000E+00
  0.00000000E+00  0.00000000E+00  0.00000000E+00
  0.00000000E+00  0.00000000E+00  0.00000000E+00
  0.00000000E+00  0.00000000E+00  0.00000000E+00
  0.00000000E+00  0.00000000E+00  0.00000000E+00
  0.00000000E+00  0.00000000E+00  0.00000000E+00
  0.00000000E+00  0.00000000E+00  0.00000000E+00
  0.00000000E+00  0.00000000E+00  0.00000000E+00
  0.00000000E+00  0.00000000E+00  0.00000000E+00
  0.00000000E+00  0.00000000E+00  0.00000000E+00
  0.00000000E+00  0.00000000E+00  0.00000000E+00
  0.00000000E+00  0.00000000E+00  0.00000000E+00
  0.00000000E+00  0.00000000E+00  0.00000000E+00
  0.00000000E+00  0.00000000E+00  0.00000000E+00
  0.00000000E+00  0.00000000E+00  0.00000000E+00
  0.00000000E+00  0.00000000E+00  0.00000000E+00
  0.00000000E+00  0.00000000E+00  0.00000000E+00
  0.00000000E+00  0.00000000E+00  0.00000000E+00
  0.00000000E+00  0.00000000E+00  0.00000000E+00
  0.00000000E+00  0.00000000E+00  0.00000000E+00
  0.00000000E+00  0.00000000E+00  0.00000000E+00
  0.00000000E+00  0.00000000E+00  0.00000000E+00
  0.00000000E+00  0.00000000E+00  0.00000000E+00
  0.00000000E+00  0.00000000E+00  0.00000000E+00
  0.00000000E+00  0.00000000E+00  0.00000000E+00
  0.00000000E+00  0.00000000E+00  0.00000000E+00
  0.00000000E+00  0.00000000E+00  0.00000000E+00
  0.00000000E+00  0.00000000E+00  0.00000000E+00
  0.00000000E+00  0.00000000E+00  0.00000000E+00
  0.00000000E+00  0.00000000E+00  0.00000000E+00
  0.00000000E+00  0.00000000E+00  0.00000000E+00
  0.00000000E+00  0.00000000E+00  0.00000000E+00
  0.00000000E+00  0.00000000E+00  0.00000000E+00
  0.00000000E+00  0.00000000E+00  0.00000000E+00
  0.00000000E+00  0.00000000E+00  0.00000000E+00
  0.00000000E+00  0.00000000E+00  0.00000000E+00
  0.00000000E+00  0.00000000E+00  0.00000000E+00
  0.00000000E+00  0.00000000E+00  0.00000000E+00
  0.00000000E+00  0.00000000E+00  0.00000000E+00
  0.00000000E+00  0.00000000E+00  0.00000000E+00
  0.00000000E+00  0.00000000E+00  0.00000000E+00
  0.00000000E+00  0.00000000E+00  0.00000000E+00
  0.00000000E+00  0.00000000E+00  0.00000000E+00
  0.00000000E+00  0.00000000E+00  0.00000000E+00
  0.00000000E+00  0.00000000E+00  0.00000000E+00
  0.00000000E+00  0.00000000E+00  0.00000000E+00
  0.00000000E+00  0.00000000E+00  0.00000000E+00
  0.00000000E+00  0.00000000E+00  0.00000000E+00
  0.00000000E+00  0.00000000E+00  0.00000000E+00
  0.00000000E+00  0.00000000E+00  0.00000000E+00
  0.00000000E+00  0.00000000E+00  0.00000000E+00
  0.00000000E+00  0.00000000E+00  0.00000000E+00
  0.00000000E+00  0.00000000E+00  0.00000000E+00
  0.00000000E+00  0.00000000E+00  0.00000000E+00
  0.00000000E+00  0.00000000E+00  0.00000000E+00
  0.00000000E+00  0.00000000E+00  0.00000000E+00
  0.00000000E+00  0.00000000E+00  0.00000000E+00
  0.00000000E+00  0.00000000E+00  0.00000000E+00
  0.00000000E+00  0.00000000E+00  0.00000000E+00
  0.00000000E+00  0.00000000E+00  0.00000000E+00
  0.00000000E+00  0.00000000E+00  0.00000000E+00
  0.00000000E+00  0.00000000E+00  0.00000000E+00
  0.00000000E+00  0.00000000E+00  0.00000000E+00
  0.00000000E+00  0.00000000E+00  0.00000000E+00
  0.00000000E+00  0.00000000E+00  0.00000000E+00
  0.00000000E+00  0.00000000E+00  0.00000000E+00
  0.00000000E+00  0.00000000E+00  0.00000000E+00
  0.00000000E+00  0.00000000E+00  0.00000000E+00
  0.00000000E+00  0.00000000E+00  0.00000000E+00
  0.00000000E+00  0.00000000E+00  0.00000000E+00
  0.00000000E+00  0.00000000E+00  0.00000000E+00
  0.00000000E+00  0.00000000E+00  0.00000000E+00
  0.00000000E+00  0.00000000E+00  0.00000000E+00
  0.00000000E+00  0.00000000E+00  0.00000000E+00
  0.00000000E+00  0.00000000E+00  0.00000000E+00
  0.00000000E+00  0.00000000E+00  0.00000000E+00
  0.00000000E+00  0.00000000E+00  0.00000000E+00
  0.00000000E+00  0.00000000E+00  0.00000000E+00
  0.00000000E+00  0.00000000E+00  0.00000000E+00
  0.00000000E+00  0.00000000E+00  0.00000000E+00
  0.00000000E+00  0.00000000E+00  0.00000000E+00
  0.00000000E+00  0.00000000E+00  0.00000000E+00
  0.00000000E+00  0.00000000E+00  0.00000000E+00
  0.00000000E+00  0.00000000E+00  0.00000000E+00
  0.00000000E+00  0.00000000E+00  0.00000000E+00
  0.00000000E+00  0.00000000E+00  0.00000000E+00
  0.00000000E+00  0.00000000E+00  0.00000000E+00
  0.00000000E+00  0.00000000E+00  0.00000000E+00
  0.00000000E+00  0.00000000E+00  0.00000000E+00
  0.00000000E+00  0.00000000E+00  0.00000000E+00
  0.00000000E+00  0.00000000E+00  0.00000000E+00
  0.00000000E+00  0.00000000E+00  0.00000000E+00
  0.00000000E+00  0.00000000E+00  0.00000000E+00
  0.00000000E+00  0.00000000E+00  0.00000000E+00
  0.00000000E+00  0.00000000E+00  0.00000000E+00
  0.00000000E+00  0.00000000E+00  0.00000000E+00
  0.00000000E+00  0.00000000E+00  0.00000000E+00
  0.00000000E+00  0.00000000E+00  0.00000000E+00
  0.00000000E+00  0.00000000E+00  0.00000000E+00
  0.00000000E+00  0.00000000E+00  0.00000000E+00
  0.00000000E+00  0.00000000E+00  0.00000000E+00
  0.00000000E+00  0.00000000E+00  0.00000000E+00
  0.00000000E+00  0.00000000E+00  0.00000000E+00
  0.00000000E+00  0.00000000E+00  0.00000000E+00
  0.00000000E+00  0.00000000E+00  0.00000000E+00
  0.00000000E+00  0.00000000E+00  0.00000000E+00
  0.00000000E+00  0.00000000E+00  0.00000000E+00
  0.00000000E+00  0.00000000E+00  0.00000000E+00
  0.00000000E+00  0.00000000E+00  0.00000000E+00
  0.00000000E+00  0.00000000E+00  0.00000000E+00
  0.00000000E+00  0.00000000E+00  0.00000000E+00
  0.00000000E+00  0.00000000E+00  0.00000000E+00
  0.00000000E+00  0.00000000E+00  0.00000000E+00
  0.00000000E+00  0.00000000E+00  0.00000000E+00
  0.00000000E+00  0.00000000E+00  0.00000000E+00
  0.00000000E+00  0.00000000E+00  0.00000000E+00
  0.00000000E+00  0.00000000E+00  0.00000000E+00
  0.00000000E+00  0.00000000E+00  0.00000000E+00
  0.00000000E+00  0.00000000E+00  0.00000000E+00
  0.00000000E+00  0.00000000E+00  0.00000000E+00