GaN_ONH                                 
    1.000000000000000     
    15.8909244537000003    0.0000000000000000    0.0000000000000000
     0.0000000000000000   16.5143318175999987    0.0000000000000000
     0.0000000000000000    0.0000000000000000   15.4982528686999999
   Ga   N    O    H 
   180   179     1     1
Direct
  0.0997791323345623  0.0557643226889178  0.3333098300660845
  0.0995276181359791  0.0549940979431573  0.6669967693378867
  0.0998500383913627  0.0554054234980492  0.0001762257947534
  0.1001792207011162  0.3889851331535336  0.3336384268738286
  0.0998805575175236  0.3885655653798955  0.6668025230689848
  0.0998198934371167  0.3887545109285835  0.0003824395424661
  0.1000870887840298  0.7225258243694158  0.3328466314835402
  0.0998906800693443  0.7217536907949084  0.6663170608746990
  0.1000411836488610  0.7221216046674538  0.9993822779725896
  0.2999212811489227  0.0554925235836801  0.3334856235591543
  0.2998274470757246  0.0548568032604536  0.6669028870470313
  0.2999546361827498  0.0552721448351318  0.0002492532521981
  0.3003300519012141  0.3892096909242195  0.3347596610198141
  0.2979774929450652  0.3850950064494217  0.6707159161642984
  0.3000650610742864  0.3887059656976323  0.0002133693243965
  0.2997525961773947  0.7229099592065964  0.3334881918978348
  0.3003327119577728  0.7215863431086980  0.6652682647944715
  0.3000253083458236  0.7225018143910595  0.9983618145923862
  0.5000787153533085  0.0554925186118097  0.3334856773476219
  0.5001726874669238  0.0548568246943373  0.6669029987374356
  0.5000453375996556  0.0552721415370652  0.0002492850521964
  0.4996699362627406  0.3892096738377494  0.3347594760524546
  0.5020225324522654  0.3850953509908939  0.6707161819878481
  0.4999349373782932  0.3887059811214341  0.0002133401159855
  0.5002474274355068  0.7229099826335321  0.3334883472015442
  0.4996672493555393  0.7215863455223520  0.6652680945243630
  0.4999746982114700  0.7225017782639606  0.9983618025270495
  0.7002208603921886  0.0557643189025839  0.3333099950621794
  0.7004724227397479  0.0549941148842936  0.6669970810253558
  0.7001499864996578  0.0554054237527735  0.0001763501193813
  0.6998207917164538  0.3889851183663882  0.3336383100004653
  0.7001194246871365  0.3885655895999379  0.6668025699508717
  0.7001801246669144  0.3887545073152577  0.0003825574630607
  0.6999129018431240  0.7225258404272453  0.3328465963007760
  0.7001093318217794  0.7217536529020866  0.6663171456125846
  0.6999588210624622  0.7221215929991401  0.9993822518795499
  0.8999999880988517  0.0556894442175245  0.3334072416663732
  0.9000000148792178  0.0552991593417944  0.6668011974780622
  0.9000000092179185  0.0554523081425604  0.0001091354170294
  0.9000000003799956  0.3890404425415374  0.3333866218910019
  0.8999999880341817  0.3888400173513475  0.6667188462584739
  0.9000000010141929  0.3889251646749017  0.0001066072691208
  0.8999999808626203  0.7222377918019853  0.3329028362609866
  0.8999999993753175  0.7218043784351097  0.6664389961188122
  0.9000000085787876  0.7220665227565700  0.9997385014400144
  0.9999365787839983  0.2224212916132809  0.3335715093416021
  0.9998396828462639  0.2220776419415320  0.6669543136465451
  0.9999213694702013  0.2221774923941321  0.0002591831056514
  0.9999700500196866  0.5556162103988045  0.3331158461005527
  0.0002618435219273  0.5553070615930104  0.6661942051311276
 -0.0000083269399054  0.5555255988278608  0.9997045608068263
  0.9999243264642239  0.8889555286273857  0.3331213187158130
  0.9998325585396073  0.8884087660788865  0.6666181960147194
  0.9999315310382979  0.8887418711336831  0.9998748475024677
  0.2000255130438947  0.2222380293017103  0.3335301801089444
  0.1991992210402732  0.2206819823293166  0.6674567199402879
  0.1997677150515987  0.2218988706912643  0.0007864203965952
  0.1999828674071444  0.5556403871537668  0.3317002345453833
  0.2008779339542601  0.5548688775297030  0.6656728268328164
  0.1996637814802842  0.5554220994912769  0.9990465581217112
  0.1996224674674086  0.8892826665376952  0.3330557756579985
  0.1998006110488381  0.8887367356007830  0.6667912905843328
  0.1999175186430693  0.8887592996269775  0.9995882512414410
  0.4000000057757850  0.2220531196593178  0.3339905687163801
  0.3999999972561757  0.2209398637114927  0.6676646413940676
  0.3999999758811080  0.2216548472125075  0.0011187309254023
  0.3999999774369165  0.5606439857000631  0.3216091758829848
  0.3999999685423391  0.5511469708353529  0.6640444217818794
  0.4000000307464807  0.5552721811267551  0.9992881732991389
  0.4000000045187452  0.8890542569401841  0.3329067058934992
  0.3999999496061845  0.8884938353952211  0.6660419683792890
  0.3999999976812928  0.8886982444524967  0.9996457759591670
  0.5999744868353878  0.2222380195336500  0.3335301942802532
  0.6008007674297896  0.2206820707184465  0.6674571780504940
  0.6002322849136332  0.2218988759121831  0.0007865761336484
  0.6000171233320867  0.5556403830526304  0.3317002434808879
  0.5991220991257926  0.5548688582779041  0.6656723797746128
  0.6003361975763913  0.5554221433526288  0.9990467674662247
  0.6003775649977676  0.8892826812740836  0.3330560340394684
  0.6001993473730598  0.8887367308961250  0.6667914351835442
  0.6000824809451909  0.8887592915141644  0.9995883256066675
  0.8000634196293652  0.2224212823440577  0.3335715678962072
  0.8001603111427451  0.2220776658922140  0.6669544024388451
  0.8000786321570535  0.2221774994033140  0.0002592404657775
  0.8000299508829605  0.5556162093665676  0.3331158489691554
  0.7997381337999778  0.5553070610910723  0.6661940644126096
  0.8000083110410706  0.5555256134867315  0.9997045642042456
  0.8000756451006015  0.8889555340186320  0.3331213894220863
  0.8001674691997790  0.8884087583021325  0.6666183210710653
  0.8000684895560327  0.8887418638308829  0.9998749080570637
  0.0999004058452390  0.2778369840936640  0.1671030113144417
  0.0999858106737362  0.2779480939725555  0.5002986105987060
  0.0998819535012285  0.2775587453909258  0.8337712981036468
  0.0997609150609316  0.6112835883252554  0.1662112240859461
  0.1008877179882739  0.6111722915363652  0.4992332400286040
  0.1001688324473820  0.6108686916480216  0.8325768766830779
  0.0998636319680229  0.9446019389033551  0.1664802190257070
  0.0988624933081565  0.9453738943372316  0.5000595190252388
  0.0998248573238787  0.9441399868272013  0.8333855212699660
  0.3000335485518811  0.2778538697176813  0.1673324288055937
  0.2990241250037007  0.2749344158412945  0.5009984144755102
  0.2996854391446093  0.2764028958532619  0.8351008175835503
  0.2985166998103847  0.6123136438292541  0.1631027419697577
  0.2983000693680039  0.6171261911967003  0.4975062058413665
  0.3004827127779261  0.6104856591334483  0.8323006397793714
  0.2999240632522101  0.9444415063852103  0.1664710829645979
  0.2996151538775576  0.9447212755069531  0.4997852944958212
  0.3000383706284060  0.9440833783707553  0.8332371466705788
  0.4999664378308322  0.2778538685349937  0.1673324128068486
  0.5009759405935958  0.2749344415717803  0.5009988241446272
  0.5003145388689453  0.2764029131524257  0.8351010057571816
  0.5014832772808494  0.6123137407429161  0.1631031981393648
  0.5016999029288303  0.6171263140304184  0.4975064538992481
  0.4995173142704731  0.6104856595322008  0.8323003533837154
  0.5000759504199915  0.9444414949872233  0.1664711436242008
  0.5003849004049503  0.9447212438312375  0.4997854638087795
  0.4999616099458409  0.9440833621706836  0.8332371489875753
  0.7000996003569774  0.2778369809236611  0.1671030862555037
  0.7000142134421665  0.2779481192288972  0.5002986448118436
  0.7001180810768978  0.2775587735547465  0.8337713848169396
  0.7002390692544471  0.6112835944660037  0.1662113175862698
  0.6991122846407453  0.6111722773375960  0.4992329117919294
  0.6998311342728253  0.6108686640921944  0.8325767686990171
  0.7001363859307355  0.9446019307746365  0.1664803331844344
  0.7011375722961714  0.9453739115942520  0.5000601048219276
  0.7001751470004498  0.9441399753316387  0.8333856701894869
  0.8999999918705134  0.2779546589343559  0.1668503812790119
  0.8999999817111511  0.2782771779851468  0.5002182095624569
  0.9000000156567559  0.2777540392110951  0.8335502841199951
  0.8999999882316854  0.6111629373026491  0.1664334153515175
  0.9000000003258148  0.6109695682339302  0.4996777407829945
  0.8999999825230711  0.6109047597981984  0.8329411663486839
  0.9000000047049365  0.9445187716301355  0.1666165360452264
  0.8999999891672242  0.9445645276016746  0.4999371378324527
  0.9000000016115907  0.9442410110771905  0.8333172446450005
  0.9999125928901259  0.1112607865298232  0.1668046866453823
  0.9996589751118469  0.1116799016674651  0.5001920857117191
  0.9998915382862474  0.1109885283318775  0.8335650249466984
  0.0000147799982451  0.4445700327218853  0.1667404232681227
  0.0003235766565759  0.4445145073439567  0.4999348589373061
  0.9999193249591646  0.4443665406621504  0.8332934015556924
  0.0000129445612922  0.7778427137218948  0.1663242450381650
  0.9995608780370121  0.7776333822481144  0.4996893585712059
  0.9999524052492910  0.7775020836698364  0.8331231894030683
  0.1999644547190114  0.1110725835497718  0.1669186475744520
  0.1993667506840172  0.1104128880323212  0.5002321415568550
  0.1997785953005883  0.1104901457992437  0.8338426247056967
  0.2000611135155867  0.4444704214087268  0.1666337993369893
  0.2014124894984807  0.4442214849007339  0.5006171734550020
  0.1994088865354902  0.4442183163292069  0.8340462971426066
  0.1998704603786457  0.7781797480660551  0.1661266076089007
  0.1973623476248490  0.7809761672615204  0.5003999623672225
  0.2000099213517779  0.7774226435207571  0.8323567831031918
  0.3999999962713574  0.1109659065233660  0.1671317541883358
  0.3999999947560459  0.1102578360863045  0.5004189319662570
  0.3999999735549833  0.1104977179407030  0.8337953573788053
  0.3999999885697640  0.4448586338215924  0.1669347665559352
  0.4000000055351028  0.4321387807016459  0.5098757815220261
  0.3999999920969599  0.4434951181307913  0.8328805287450093
  0.4000000164403251  0.7778718079358804  0.1661249889592065
  0.3999999756992025  0.7791544023952428  0.4984548661640510
  0.4000000010135387  0.7774374747606253  0.8318988409866034
  0.6000355949972608  0.1110725454775104  0.1669186718586676
  0.6006332788690282  0.1104129021863299  0.5002324519835776
  0.6002213975962070  0.1104901356697972  0.8338428123144043
  0.5999388755591699  0.4444704282451054  0.1666337508358010
  0.5985875021272942  0.4442214662581066  0.5006166611430682
  0.6005911317742297  0.4442183518693578  0.8340466263536265
  0.6001295574720776  0.7781797477956315  0.1661266909979579
  0.6026376707860777  0.7809760740953293  0.5004003813989562
  0.5999900684317547  0.7774226060864061  0.8323568034865193
  0.8000874531470413  0.1112608121234822  0.1668047753342157
  0.8003410157792826  0.1116799100311248  0.5001922730182505
  0.8001085123907455  0.1109885440341622  0.8335651135631285
  0.7999852179795313  0.4445700436503721  0.1667404131578697
  0.7996764201608619  0.4445145028864036  0.4999347332732008
  0.8000806655865189  0.4443665451516237  0.8332934422880773
  0.7999870641204005  0.7778427144362517  0.1663242368792541
  0.8004391179047793  0.7776333903566366  0.4996895007818226
  0.8000475961075502  0.7775020717140186  0.8331232277844733
  0.0998871661964239  0.0557566532158331  0.1257445811676376
  0.0991176948258219  0.0560475181583554  0.4588956478980825
  0.0997497685391287  0.0552358215263500  0.7925717314046860
  0.0999899601052650  0.3888708704506157  0.1259828606244142
  0.1007200785342812  0.3893135376343096  0.4593381723457710
  0.0997485840360344  0.3886077576701961  0.7924441078866059
  0.0999948077747100  0.7222915595767549  0.1250446659233842
  0.0995270406591624  0.7223698387089350  0.4585905508437544
  0.0998337078152327  0.7219106923870672  0.7918364319443399
  0.2999832276414990  0.0556382268633705  0.1258247052930873
  0.2996880549772579  0.0557439763570435  0.4590897907292660
  0.2998918233346897  0.0552342351692562  0.7925531117052428
  0.3002768023492350  0.3890441630314384  0.1262018807520385
  0.2995431675393883  0.3857072318823558  0.4602173938283050
  0.2987611942418520  0.3873900277880109  0.7955224454091093
  0.2998682250134441  0.7233584236103924  0.1237273244811863
  0.2961751396990001  0.7287659305064259  0.4590064719631117
  0.2999671055379027  0.7215866392919984  0.7910210547275717
  0.5000168086585551  0.0556382284027564  0.1258247098577107
  0.5003119870201679  0.0557439754357151  0.4590898459473172
  0.5001082265950934  0.0552342366756714  0.7925531369660550
  0.4997232087045117  0.3890441604735233  0.1262018609503873
  0.5004568246948102  0.3857072040693375  0.4602173484022141
  0.5012388329560810  0.3873900087165400  0.7955225571355503
  0.5001317990252773  0.7233584183052685  0.1237273538724474
  0.5038249023046503  0.7287659550426482  0.4590065483960249
  0.5000329131923388  0.7215866701895124  0.7910209840945875
  0.7001129084632797  0.0557566463047745  0.1257445953908756
  0.7008823183474163  0.0560474721988457  0.4588957567383263
  0.7002502145348295  0.0552358158207669  0.7925718021617335
  0.7000100235355204  0.3888708594439503  0.1259828819103229
  0.6992799525636977  0.3893135428243500  0.4593380952632107
  0.7002513952880680  0.3886077441341628  0.7924441557775658
  0.7000052082005438  0.7222915512679646  0.1250446691238483
  0.7004729493127678  0.7223698389214193  0.4585905622722641
  0.7001662995894581  0.7219107100903061  0.7918364328867804
  0.9000000052255047  0.0556402829984026  0.1257117279803533
  0.8999999951569277  0.0557675437855764  0.4590685515312459
  0.8999999825989748  0.0553628452666450  0.7924268733893137
  0.8999999876840620  0.3890344025092253  0.1257552992946898
  0.9000000098931169  0.3893386063946014  0.4590334847531642
  0.8999999962357712  0.3888071724556453  0.7923277663801267
  0.9000000104378022  0.7222197945055738  0.1253731824046742
  0.8999999873117519  0.7219226579538623  0.4585235972195623
  0.8999999875206403  0.7219646720471732  0.7920238691377703
  0.9999558160485771  0.2223704419750489  0.1258739632948324
  0.9998299682629493  0.2227704355823420  0.4591955581925657
  0.9999099985256684  0.2220921230115192  0.7925774593488332
  0.9998897634928861  0.5555759913888002  0.1253683516095699
  0.0005563062407487  0.5556176589701628  0.4588106291819455
  0.0000513942822422  0.5553659551952311  0.7918362638256754
  0.9999262915643726  0.8889495374373758  0.1254589125311596
  0.9996802517572532  0.8887948796346065  0.4588031448254861
  0.9999072951744187  0.8885798740376644  0.7922260223704820
  0.1999679838522883  0.2223197998469092  0.1263577751885285
  0.1990535682844068  0.2211927781702260  0.4590962452957375
  0.1996505328560525  0.2215146486024674  0.7930442490457391
  0.1991544498228555  0.5552366546093187  0.1243630226595126
  0.2024873980985292  0.5554889394314252  0.4577543173893993
  0.2002813913678519  0.5551209636894738  0.7914718979745234
  0.1998226789681937  0.8892199951296993  0.1251657638900736
  0.1986228178414526  0.8912132071728097  0.4586334732988807
  0.1999145681947360  0.8887802171138353  0.7922821015938034
  0.4000000164330280  0.2221585319354432  0.1266016062174603
  0.4000000343718170  0.2212561938915570  0.4596999408004943
  0.4000000426743005  0.2217178797451463  0.7933157979047278
  0.4000000169583990  0.5560656535675611  0.1253378653360010
  0.3999999904538533  0.5545246071731198  0.7907744860167328
  0.4000000093167423  0.8890459438883341  0.1252952481618183
  0.4000000362563336  0.8904161567175358  0.4584741349958184
  0.4000000234461183  0.8886959745354308  0.7917076870495067
  0.6000320264664529  0.2223197864939699  0.1263577920573344
  0.6009464514658208  0.2211927578404707  0.4590962903291992
  0.6003494814607822  0.2215146146587916  0.7930443673641755
  0.6008455055840782  0.5552366596469112  0.1243631256293269
  0.5975125379556819  0.5554889936582580  0.4577542704624320
  0.5997186145831132  0.5551209414434582  0.7914717874587944
  0.6001773292263579  0.8892200004315058  0.1251657791589064
  0.6013772696564423  0.8912131551530384  0.4586336219701991
  0.6000854392233053  0.8887802165915215  0.7922821084461191
  0.8000441410487499  0.2223704419346626  0.1258739710239646
  0.8001700075329089  0.2227704306208550  0.4591955845851478
  0.8000899542831235  0.2220921079254543  0.7925774841392632
  0.8001101849936053  0.5555759907479860  0.1253683635999203
  0.7994436661154765  0.5556176611620541  0.4588105989010717
  0.7999485929231360  0.5553659460163829  0.7918362242642605
  0.8000736807451843  0.8889495312754867  0.1254589199977900
  0.8003197114723475  0.8887948742365248  0.4588032025146709
  0.8000926419108009  0.8885798797129165  0.7922260406532360
  0.1000342998046963  0.2779048504511299  0.2927076243230132
  0.0999738357591125  0.2773836251374744  0.6259736402776457
  0.0999956698174916  0.2776584271923616  0.9593992496289446
  0.0996551179929422  0.6112288416411008  0.2919662024471587
  0.1006765729451839  0.6105382525858041  0.6249255692512001
  0.0998508371620281  0.6110440900279399  0.9581745529897544
  0.0996580956640103  0.9448204470864050  0.2920216632159830
  0.0996193311188796  0.9440866259431862  0.6256998999782212
  0.0998567319921480  0.9443735597514853  0.9589385873261213
  0.3002770485974374  0.2782218898291228  0.2930107457691341
  0.2992892521851121  0.2752555621437062  0.6265986993846466
  0.2999946459700730  0.2771637076751492  0.9604585511817114
  0.2969554433779413  0.6129442990430859  0.2876048199972494
  0.3013767476361724  0.6100227071126695  0.6227074993010984
  0.2999974540769985  0.6109353350887727  0.9581748988590130
  0.2998611295963747  0.9445383108396244  0.2920751110434478
  0.2998143821336152  0.9439377943846395  0.6254677338090525
  0.2999966451584488  0.9442900603299216  0.9588278385815676
  0.4997229645449346  0.2782218774338172  0.2930107164659613
  0.5007107713169436  0.2752556299430151  0.6265988606082844
  0.5000053828144122  0.2771637011233655  0.9604585887507557
  0.5030445788071789  0.6129442976891220  0.2876049717464412
  0.4986232534074317  0.6100227028915118  0.6227074912868971
  0.5000025699092618  0.6109353225166571  0.9581748507709266
  0.5001389074432954  0.9445382987845766  0.2920751447555299
  0.5001856455134023  0.9439378021343031  0.6254677947120724
  0.5000033863006822  0.9442900622906499  0.9588278335446688
  0.6999656952562462  0.2779048499165737  0.2927076152662064
  0.7000261473335410  0.2773836054201061  0.6259736872533039
  0.7000043106975636  0.2776584197724667  0.9593992701199094
  0.7003448775809890  0.6112288348970986  0.2919662312482546
  0.6993234381677058  0.6105382895237521  0.6249254531852729
  0.7001491738863925  0.6110440940725422  0.9581745391230739
  0.7003419162839920  0.9448204677352979  0.2920216824007655
  0.7003806455393710  0.9440866395100334  0.6257000777925372
  0.7001432752511118  0.9443735776905580  0.9589386042560858
  0.8999999952511467  0.2779951512545691  0.2924573361324364
  0.8999999936660025  0.2777655494271978  0.6258379531164157
  0.8999999915291451  0.2778079710915674  0.9591772287485226
  0.8999999864385201  0.6110543111781279  0.2921135151758352
  0.8999999931572699  0.6107080644450893  0.6252957620203311
  0.9000000021968845  0.6109815276395197  0.9585970869289142
  0.8999999980392636  0.9446415950187742  0.2922281981633002
  0.8999999722573154  0.9442178171327273  0.6256086214297187
  0.8999999907494649  0.9443932629797833  0.9589194570413690
  0.9998738963715800  0.1114239142105674  0.2923955069280845
  0.9998606730343306  0.1110239920521742  0.6258432083600178
  0.9999405450384422  0.1111023657341684  0.9591679170156736
  0.0001346328234285  0.4444596826176142  0.2924093394727384
  0.0000794524327180  0.4441753375116722  0.6255303673657985
  0.0000000675728290  0.4443681270416725  0.9589538258937430
  0.9999039003689209  0.7778747565899375  0.2919489617032638
  0.9998913451270004  0.7773386014909981  0.6253437397024606
  0.9999398233714132  0.7776677057556949  0.9587154031435199
  0.1999940975486927  0.1111818016516383  0.2924796556340609
  0.1995685550687959  0.1099824903069184  0.6258699825814883
  0.1999271017776720  0.1108756480626518  0.9594215044160925
  0.2003876149768022  0.4442298435958333  0.2924813367189210
  0.2006289953458636  0.4434002491093582  0.6261836704205149
  0.1997958206687821  0.4441732692027385  0.9594495768980194
  0.1995953803733031  0.7784594922801750  0.2915503922139108
  0.1996112812787437  0.7776273521472875  0.6259320728940111
  0.1998143297090602  0.7777725996132316  0.9579614082111269
  0.3999999976008709  0.1110656920691952  0.2926913419838790
  0.4000000926139040  0.1100603729994128  0.6260703677412270
  0.4000000025371491  0.1107721593726766  0.9594068205586302
  0.4000000087325267  0.4466266640966037  0.2945155716913184
  0.3999999850207015  0.4360318865289131  0.6358999894772632
  0.4000000142919859  0.4441333800345931  0.9589503584567113
  0.4000000264764271  0.7778118867472236  0.2918150149613800
  0.4000000119510150  0.7775153913541121  0.6245232387600301
  0.4000000032942447  0.7778797992030648  0.9574527817618947
  0.6000058998032771  0.1111817950263595  0.2924796485823450
  0.6004315268828688  0.1099825418201303  0.6258700923551799
  0.6000728926897394  0.1108756463536636  0.9594215450847926
  0.5996123976981588  0.4442298586413948  0.2924813054784016
  0.5993709948889435  0.4434002414735188  0.6261835272164125
  0.6002042055371906  0.4441732701525318  0.9594496706027521
  0.6004046037147782  0.7784595087882020  0.2915504292242616
  0.6003887245656880  0.7776273670253849  0.6259321810317561
  0.6001856779087839  0.7777726235308251  0.9579614011024014
  0.8001260776059083  0.1114239273431414  0.2923955235461729
  0.8001392706340662  0.1110239822886470  0.6258432791017334
  0.8000594237105599  0.1111023735895433  0.9591679194147098
  0.7998653354671506  0.4444596944235035  0.2924093278281508
  0.7999205262259738  0.4441753377057283  0.6255303269320039
  0.7999999085895325  0.4443681296644040  0.9589538376400740
  0.8000960724444397  0.7778747599446000  0.2919489579872201
  0.8001086035254691  0.7773386235003508  0.6253437858659326
  0.8000601503353175  0.7776677210344561  0.9587153994662903
  0.4000000283790638  0.6079960778673615  0.4311763856341482
  0.4000000027770191  0.5238914332945099  0.5094127231582765
 
  0.00000000E+00  0.00000000E+00  0.00000000E+00
  0.00000000E+00  0.00000000E+00  0.00000000E+00
  0.00000000E+00  0.00000000E+00  0.00000000E+00
  0.00000000E+00  0.00000000E+00  0.00000000E+00
  0.00000000E+00  0.00000000E+00  0.00000000E+00
  0.00000000E+00  0.00000000E+00  0.00000000E+00
  0.00000000E+00  0.00000000E+00  0.00000000E+00
  0.00000000E+00  0.00000000E+00  0.00000000E+00
  0.00000000E+00  0.00000000E+00  0.00000000E+00
  0.00000000E+00  0.00000000E+00  0.00000000E+00
  0.00000000E+00  0.00000000E+00  0.00000000E+00
  0.00000000E+00  0.00000000E+00  0.00000000E+00
  0.00000000E+00  0.00000000E+00  0.00000000E+00
  0.00000000E+00  0.00000000E+00  0.00000000E+00
  0.00000000E+00  0.00000000E+00  0.00000000E+00
  0.00000000E+00  0.00000000E+00  0.00000000E+00
  0.00000000E+00  0.00000000E+00  0.00000000E+00
  0.00000000E+00  0.00000000E+00  0.00000000E+00
  0.00000000E+00  0.00000000E+00  0.00000000E+00
  0.00000000E+00  0.00000000E+00  0.00000000E+00
  0.00000000E+00  0.00000000E+00  0.00000000E+00
  0.00000000E+00  0.00000000E+00  0.00000000E+00
  0.00000000E+00  0.00000000E+00  0.00000000E+00
  0.00000000E+00  0.00000000E+00  0.00000000E+00
  0.00000000E+00  0.00000000E+00  0.00000000E+00
  0.00000000E+00  0.00000000E+00  0.00000000E+00
  0.00000000E+00  0.00000000E+00  0.00000000E+00
  0.00000000E+00  0.00000000E+00  0.00000000E+00
  0.00000000E+00  0.00000000E+00  0.00000000E+00
  0.00000000E+00  0.00000000E+00  0.00000000E+00
  0.00000000E+00  0.00000000E+00  0.00000000E+00
  0.00000000E+00  0.00000000E+00  0.00000000E+00
  0.00000000E+00  0.00000000E+00  0.00000000E+00
  0.00000000E+00  0.00000000E+00  0.00000000E+00
  0.00000000E+00  0.00000000E+00  0.00000000E+00
  0.00000000E+00  0.00000000E+00  0.00000000E+00
  0.00000000E+00  0.00000000E+00  0.00000000E+00
  0.00000000E+00  0.00000000E+00  0.00000000E+00
  0.00000000E+00  0.00000000E+00  0.00000000E+00
  0.00000000E+00  0.00000000E+00  0.00000000E+00
  0.00000000E+00  0.00000000E+00  0.00000000E+00
  0.00000000E+00  0.00000000E+00  0.00000000E+00
  0.00000000E+00  0.00000000E+00  0.00000000E+00
  0.00000000E+00  0.00000000E+00  0.00000000E+00
  0.00000000E+00  0.00000000E+00  0.00000000E+00
  0.00000000E+00  0.00000000E+00  0.00000000E+00
  0.00000000E+00  0.00000000E+00  0.00000000E+00
  0.00000000E+00  0.00000000E+00  0.00000000E+00
  0.00000000E+00  0.00000000E+00  0.00000000E+00
  0.00000000E+00  0.00000000E+00  0.00000000E+00
  0.00000000E+00  0.00000000E+00  0.00000000E+00
  0.00000000E+00  0.00000000E+00  0.00000000E+00
  0.00000000E+00  0.00000000E+00  0.00000000E+00
  0.00000000E+00  0.00000000E+00  0.00000000E+00
  0.00000000E+00  0.00000000E+00  0.00000000E+00
  0.00000000E+00  0.00000000E+00  0.00000000E+00
  0.00000000E+00  0.00000000E+00  0.00000000E+00
  0.00000000E+00  0.00000000E+00  0.00000000E+00
  0.00000000E+00  0.00000000E+00  0.00000000E+00
  0.00000000E+00  0.00000000E+00  0.00000000E+00
  0.00000000E+00  0.00000000E+00  0.00000000E+00
  0.00000000E+00  0.00000000E+00  0.00000000E+00
  0.00000000E+00  0.00000000E+00  0.00000000E+00
  0.00000000E+00  0.00000000E+00  0.00000000E+00
  0.00000000E+00  0.00000000E+00  0.00000000E+00
  0.00000000E+00  0.00000000E+00  0.00000000E+00
  0.00000000E+00  0.00000000E+00  0.00000000E+00
  0.00000000E+00  0.00000000E+00  0.00000000E+00
  0.00000000E+00  0.00000000E+00  0.00000000E+00
  0.00000000E+00  0.00000000E+00  0.00000000E+00
  0.00000000E+00  0.00000000E+00  0.00000000E+00
  0.00000000E+00  0.00000000E+00  0.00000000E+00
  0.00000000E+00  0.00000000E+00  0.00000000E+00
  0.00000000E+00  0.00000000E+00  0.00000000E+00
  0.00000000E+00  0.00000000E+00  0.00000000E+00
  0.00000000E+00  0.00000000E+00  0.00000000E+00
  0.00000000E+00  0.00000000E+00  0.00000000E+00
  0.00000000E+00  0.00000000E+00  0.00000000E+00
  0.00000000E+00  0.00000000E+00  0.00000000E+00
  0.00000000E+00  0.00000000E+00  0.00000000E+00
  0.00000000E+00  0.00000000E+00  0.00000000E+00
  0.00000000E+00  0.00000000E+00  0.00000000E+00
  0.00000000E+00  0.00000000E+00  0.00000000E+00
  0.00000000E+00  0.00000000E+00  0.00000000E+00
  0.00000000E+00  0.00000000E+00  0.00000000E+00
  0.00000000E+00  0.00000000E+00  0.00000000E+00
  0.00000000E+00  0.00000000E+00  0.00000000E+00
  0.00000000E+00  0.00000000E+00  0.00000000E+00
  0.00000000E+00  0.00000000E+00  0.00000000E+00
  0.00000000E+00  0.00000000E+00  0.00000000E+00
  0.00000000E+00  0.00000000E+00  0.00000000E+00
  0.00000000E+00  0.00000000E+00  0.00000000E+00
  0.00000000E+00  0.00000000E+00  0.00000000E+00
  0.00000000E+00  0.00000000E+00  0.00000000E+00
  0.00000000E+00  0.00000000E+00  0.00000000E+00
  0.00000000E+00  0.00000000E+00  0.00000000E+00
  0.00000000E+00  0.00000000E+00  0.00000000E+00
  0.00000000E+00  0.00000000E+00  0.00000000E+00
  0.00000000E+00  0.00000000E+00  0.00000000E+00
  0.00000000E+00  0.00000000E+00  0.00000000E+00
  0.00000000E+00  0.00000000E+00  0.00000000E+00
  0.00000000E+00  0.00000000E+00  0.00000000E+00
  0.00000000E+00  0.00000000E+00  0.00000000E+00
  0.00000000E+00  0.00000000E+00  0.00000000E+00
  0.00000000E+00  0.00000000E+00  0.00000000E+00
  0.00000000E+00  0.00000000E+00  0.00000000E+00
  0.00000000E+00  0.00000000E+00  0.00000000E+00
  0.00000000E+00  0.00000000E+00  0.00000000E+00
  0.00000000E+00  0.00000000E+00  0.00000000E+00
  0.00000000E+00  0.00000000E+00  0.00000000E+00
  0.00000000E+00  0.00000000E+00  0.00000000E+00
  0.00000000E+00  0.00000000E+00  0.00000000E+00
  0.00000000E+00  0.00000000E+00  0.00000000E+00
  0.00000000E+00  0.00000000E+00  0.00000000E+00
  0.00000000E+00  0.00000000E+00  0.00000000E+00
  0.00000000E+00  0.00000000E+00  0.00000000E+00
  0.00000000E+00  0.00000000E+00  0.00000000E+00
  0.00000000E+00  0.00000000E+00  0.00000000E+00
  0.00000000E+00  0.00000000E+00  0.00000000E+00
  0.00000000E+00  0.00000000E+00  0.00000000E+00
  0.00000000E+00  0.00000000E+00  0.00000000E+00
  0.00000000E+00  0.00000000E+00  0.00000000E+00
  0.00000000E+00  0.00000000E+00  0.00000000E+00
  0.00000000E+00  0.00000000E+00  0.00000000E+00
  0.00000000E+00  0.00000000E+00  0.00000000E+00
  0.00000000E+00  0.00000000E+00  0.00000000E+00
  0.00000000E+00  0.00000000E+00  0.00000000E+00
  0.00000000E+00  0.00000000E+00  0.00000000E+00
  0.00000000E+00  0.00000000E+00  0.00000000E+00
  0.00000000E+00  0.00000000E+00  0.00000000E+00
  0.00000000E+00  0.00000000E+00  0.00000000E+00
  0.00000000E+00  0.00000000E+00  0.00000000E+00
  0.00000000E+00  0.00000000E+00  0.00000000E+00
  0.00000000E+00  0.00000000E+00  0.00000000E+00
  0.00000000E+00  0.00000000E+00  0.00000000E+00
  0.00000000E+00  0.00000000E+00  0.00000000E+00
  0.00000000E+00  0.00000000E+00  0.00000000E+00
  0.00000000E+00  0.00000000E+00  0.00000000E+00
  0.00000000E+00  0.00000000E+00  0.00000000E+00
  0.00000000E+00  0.00000000E+00  0.00000000E+00
  0.00000000E+00  0.00000000E+00  0.00000000E+00
  0.00000000E+00  0.00000000E+00  0.00000000E+00
  0.00000000E+00  0.00000000E+00  0.00000000E+00
  0.00000000E+00  0.00000000E+00  0.00000000E+00
  0.00000000E+00  0.00000000E+00  0.00000000E+00
  0.00000000E+00  0.00000000E+00  0.00000000E+00
  0.00000000E+00  0.00000000E+00  0.00000000E+00
  0.00000000E+00  0.00000000E+00  0.00000000E+00
  0.00000000E+00  0.00000000E+00  0.00000000E+00
  0.00000000E+00  0.00000000E+00  0.00000000E+00
  0.00000000E+00  0.00000000E+00  0.00000000E+00
  0.00000000E+00  0.00000000E+00  0.00000000E+00
  0.00000000E+00  0.00000000E+00  0.00000000E+00
  0.00000000E+00  0.00000000E+00  0.00000000E+00
  0.00000000E+00  0.00000000E+00  0.00000000E+00
  0.00000000E+00  0.00000000E+00  0.00000000E+00