GaN_ONH                                 
    1.000000000000000     
    15.8909244537000003    0.0000000000000000    0.0000000000000000
     0.0000000000000000   16.5143318175999987    0.0000000000000000
     0.0000000000000000    0.0000000000000000   15.4982528686999999
   Ga   N    O    H 
   180   179     1     1
Direct
  0.0997848811911520  0.0558095886889735  0.3333441498755453
  0.0995271941675264  0.0550445989711696  0.6670213001652924
  0.0998582354117230  0.0554346828557130  0.0001964586852040
  0.1002088377192882  0.3889737389991629  0.3336644719923494
  0.0998779933884672  0.3885611593797574  0.6668204052923721
  0.0998243666576843  0.3887011137534483  0.0004083468328153
  0.1000968086700707  0.7225327503511531  0.3327851514857190
  0.0999190692534011  0.7217450386353290  0.6662665320777200
  0.1000216516626271  0.7221242980319236  0.9993310768718811
  0.2999205618325810  0.0555538411372832  0.3335182461799939
  0.2998290499645985  0.0549185813485302  0.6669248461849825
  0.2999608710564202  0.0553111532028941  0.0002726600016514
  0.3003223844632038  0.3891988421878844  0.3347811458552202
  0.2979870233746751  0.3851107758629667  0.6707123985418960
  0.3000630144697244  0.3886718022117435  0.0002009496172724
  0.2997737924938111  0.7228862943263796  0.3334481814297639
  0.3003128129552563  0.7215651492183077  0.6652553675077636
  0.3000204752945227  0.7225079347765070  0.9982837494299012
  0.5000794947355353  0.0555538444317928  0.3335184500044072
  0.5001709014549666  0.0549186137650104  0.6669251184841506
  0.5000390907196960  0.0553111273817072  0.0002727497002111
  0.4996775669601201  0.3891987447524878  0.3347808721063886
  0.5020130814063095  0.3851112996882237  0.6707128518626689
  0.4999369332365016  0.3886718109439940  0.0002009644163783
  0.5002262350496717  0.7228863757481396  0.3334485896853586
  0.4996870961382727  0.7215651771746330  0.6652552189451933
  0.4999795497502016  0.7225078388127367  0.9982837713862828
  0.7002150891940067  0.0558095675123770  0.3333445949959303
  0.7004728125961414  0.0550446896737119  0.6670219333704820
  0.7001417838044123  0.0554346803262235  0.0001966772896950
  0.6997911969621223  0.3889736948287498  0.3336641870741484
  0.7001219119347941  0.3885612266848025  0.6668204157855393
  0.7001756937545676  0.3887010973863806  0.0004085617088540
  0.6999031739003913  0.7225328591741552  0.3327851572889204
  0.7000809971923818  0.7217449404541254  0.6662666557566858
  0.6999783210024997  0.7221242643605681  0.9993310659382342
  0.8999999683975872  0.0557230614426342  0.3334409408632514
  0.9000000173070930  0.0553281711062357  0.6668185344657402
  0.8999999994540531  0.0554910620615211  0.0001360790044449
  0.9000000130703896  0.3890186889557107  0.3334154825144496
  0.8999999585667950  0.3888189504314484  0.6667370632540026
  0.9000000076938974  0.3888543402738128  0.0001250676775458
  0.8999999766816345  0.7222449856939566  0.3328542265708169
  0.9000000141293398  0.7217939397419949  0.6663940287072895
  0.8999999978296955  0.7220641292218348  0.9996701850367214
  0.9999505781063038  0.2224379847502415  0.3335473193924107
  0.9998459392236662  0.2220892036519795  0.6669124770488017
  0.9999292362920225  0.2221625356536296  0.0002258211342648
  0.9999705538814232  0.5556595890723947  0.3331310283472591
  0.0002523216675452  0.5553639174422151  0.6662173541940288
  0.9999880162860246  0.5555237059372754  0.9997173494591849
  0.9999283397833412  0.8889348041683020  0.3331307427337737
  0.9998402168503945  0.8883801323632745  0.6666231953467769
  0.9999288940265134  0.8887117546041042  0.9998818512938741
  0.2000374435973058  0.2222768311543779  0.3335136788710397
  0.1992000389735988  0.2207025496781475  0.6674059262311793
  0.1997802923425576  0.2219040227263586  0.0007474732039226
  0.1999851043804440  0.5557108830366978  0.3317350547263334
  0.2008703314389419  0.5549782716435125  0.6657576407780469
  0.1996446525151338  0.5554346133167479  0.9990259382693735
  0.1996355150185863  0.8892644563087696  0.3330641848065117
  0.1997960662143984  0.8887292227480851  0.6667875777787495
  0.1999215102030129  0.8887248443938348  0.9995978639877812
  0.4000000591475157  0.2221023446449520  0.3339611117746320
  0.4000000140340276  0.2209902019828398  0.6676229115661729
  0.3999999673130361  0.2216562923922070  0.0010585420139054
  0.3999999362145630  0.5606671705576148  0.3214076449230939
  0.3999998898669972  0.5512216299638047  0.6640064953145056
  0.4000001084154192  0.5552979782627414  0.9992718792094148
  0.4000000348148092  0.8890243759868174  0.3329357907555874
  0.3999999493210566  0.8884859170551500  0.6660609139875920
  0.4000000189977584  0.8886742650973229  0.9996719115862035
  0.5999624958225923  0.2222767961488292  0.3335138432856266
  0.6007999705233207  0.2207026942600583  0.6674066927462938
  0.6002197368861762  0.2219040222207861  0.0007477302257823
  0.6000149041065029  0.5557108740558853  0.3317350542622993
  0.5991298187595010  0.5549781930046216  0.6657569376663589
  0.6003553130389239  0.5554347670378798  0.9990263393803117
  0.6003645518148829  0.8892644627360621  0.3330647912825686
  0.6002038931387316  0.8887292320011563  0.6667879871305766
  0.6000784920652996  0.8887248295611699  0.9995979963875221
  0.8000494283148751  0.2224379620035303  0.3335474345492477
  0.8001540489095070  0.2220892580173734  0.6669126330846047
  0.8000707912431471  0.2221625360513701  0.0002259299570609
  0.8000295237855917  0.5556595749221919  0.3331309657272841
  0.7997476516280533  0.5553639091521425  0.6662170888731223
  0.8000119560489769  0.5555237359494921  0.9997173493646117
  0.8000716120058127  0.8889348237979474  0.3331309670275164
  0.8001598864704390  0.8883801061163730  0.6666235001339840
  0.8000711215655767  0.8887117652257873  0.9998819619572032
  0.0999086941841928  0.2777903621646937  0.1670838578954986
  0.1000062999618807  0.2779379255982788  0.5002640279251001
  0.0998843962725122  0.2775100393463105  0.8337413193546889
  0.0997536618059948  0.6112967595207034  0.1661852642083457
  0.1008924166407896  0.6111998919917857  0.4992140118151280
  0.1001587003115530  0.6108869014503646  0.8325660362792677
  0.0998703139596946  0.9445773189313703  0.1665102564174211
  0.0988679673251011  0.9453274671788128  0.5000977622207693
  0.0998335786649567  0.9441020379479296  0.8334122825379572
  0.3000515555576141  0.2778259946399093  0.1672947322772355
  0.2989675485722500  0.2749441046394018  0.5009435455936530
  0.2996871496285754  0.2763768550135344  0.8350585962396506
  0.2984791613993214  0.6123343709892408  0.1630283567547243
  0.2984681574971497  0.6170965814763163  0.4975249682550834
  0.3004677869791139  0.6105128021295223  0.8322447635017969
  0.2999296872183381  0.9444318514219751  0.1665145538899427
  0.2996273809929116  0.9446921107194480  0.4998236651210526
  0.3000366000286666  0.9440540683927859  0.8332733455277946
  0.4999484393157675  0.2778259843998160  0.1672946486847177
  0.5010325235010100  0.2749442062963318  0.5009442798183091
  0.5003128145043827  0.2763768791456689  0.8350589131497825
  0.5015208189239853  0.6123345285679944  0.1630290242366163
  0.5015317835343800  0.6170967235472899  0.4975252119482273
  0.4995323328695120  0.6105127735807749  0.8322442789092139
  0.5000703536527167  0.9444318405173396  0.1665147105536949
  0.5003726338863832  0.9446920974688847  0.4998240188028653
  0.4999633695000891  0.9440540521225936  0.8332733951013381
  0.7000913114965865  0.2777903160083705  0.1670839927262550
  0.6999936046372950  0.2779379013679900  0.5002641208245837
  0.7001156427598854  0.2775101015761123  0.8337415691664726
  0.7002463469414798  0.6112967931182406  0.1661854459659591
  0.6991076088108624  0.6111999028900191  0.4992134861815113
  0.6998412177527131  0.6108868067742967  0.8325658569436032
  0.7001296525827422  0.9445773097817612  0.1665104990246070
  0.7011320271375513  0.9453274485023533  0.5000986697561708
  0.7001664219722481  0.9441019947897414  0.8334125629846773
  0.8999999960639613  0.2778907069267783  0.1668415990000237
  0.8999999813984800  0.2782473249519763  0.5001905595393508
  0.9000000041985530  0.2776912492335059  0.8335190803558050
  0.9000000010378031  0.6111749743852172  0.1664054261802706
  0.9000000240359682  0.6109995796835725  0.4996602726206751
  0.8999999658426887  0.6109121671010823  0.8329219827061624
  0.8999999820756415  0.9444988294415469  0.1666464882588234
  0.8999999751251480  0.9445372076541160  0.4999705966718441
  0.9000000216114756  0.9442110287005181  0.8333519460839804
  0.9999206005011471  0.1112823244466724  0.1668041734684835
  0.9996752516067789  0.1116990273800381  0.5001771476593042
  0.9998967299944744  0.1109928015817788  0.8335495408727706
  0.0000106493546020  0.4445222244696176  0.1667816399125002
  0.0003041405265489  0.4445178231002830  0.4999827230622376
  0.9999161815352553  0.4443128403932557  0.8333274500969481
  0.0000104148571982  0.7777965950119526  0.1662832704192026
  0.9995647426903325  0.7775986220591312  0.4996654182114550
  0.9999485192021017  0.7774625772074191  0.8330773735754871
  0.1999727638372077  0.1111115889000016  0.1669143158568016
  0.1993530181624898  0.1104270172473367  0.5002150794922622
  0.1997865190718173  0.1105098031752243  0.8338231999498679
  0.2000568624871455  0.4444528081813623  0.1666485903083170
  0.2013868043499394  0.4442389067633400  0.5006832244261625
  0.1993979911231916  0.4441602871779263  0.8341007095602994
  0.1998730360670654  0.7781354788676283  0.1660794630945536
  0.1973618825699441  0.7809544674558742  0.5003630519837412
  0.2000127954727366  0.7773759588325162  0.8323313048126206
  0.4000000116935354  0.1110189744409093  0.1671235563907531
  0.4000000283018252  0.1103140375911543  0.5004051138248317
  0.3999999705270341  0.1105288514278360  0.8337791223952902
  0.3999999883925440  0.4448102353907885  0.1669269750907181
  0.4000000636924241  0.4322692923001775  0.5097823175185496
  0.3999999610387590  0.4434670186661125  0.8328621732035787
  0.4000000283780309  0.7778337264677859  0.1660688670045682
  0.3999999350482426  0.7790742738387330  0.4984693394728754
  0.4000000207929162  0.7774184479636059  0.8319023496008109
  0.6000272557720991  0.1111115547504367  0.1669144491589460
  0.6006470137371742  0.1104270717740310  0.5002157360016761
  0.6002134674793255  0.1105097756615388  0.8338235926400718
  0.5999431025764034  0.4444528194127906  0.1666485291820449
  0.5986131721603390  0.4442388570461034  0.5006824766017255
  0.6006020685326662  0.4441604324392866  0.8341012077041118
  0.6001269601781398  0.7781355102845596  0.1660796399339038
  0.6026382027455731  0.7809543731995594  0.5003636862113805
  0.5999871750446256  0.7773759171413359  0.8323313165629014
  0.8000793926378352  0.1112823068865964  0.1668043145324760
  0.8003247240925430  0.1116990135272472  0.5001774824196339
  0.8001033325289492  0.1109928116956654  0.8335497357127263
  0.7999893987924033  0.4445222392335730  0.1667816241450169
  0.7996958559454828  0.4445177757734615  0.4999825399766696
  0.8000838119357281  0.4443128601910227  0.8333275013581727
  0.7999896023496997  0.7777965989632453  0.1662832681480025
  0.8004352541435502  0.7775986251882548  0.4996656451364369
  0.8000515144601134  0.7774625597864389  0.8330774627227722
  0.0998812138978139  0.0556786194446169  0.1257548272689486
  0.0990877586391556  0.0559451473535456  0.4589379313397791
  0.0997463778328004  0.0551846146010886  0.7926099283918854
  0.0999737978683349  0.3888795202065975  0.1260006138106389
  0.1006690201462898  0.3893469215189480  0.4593848440088328
  0.0997242396136115  0.3885686187242686  0.7924737777851349
  0.0999866137930773  0.7222700786830555  0.1250314093866393
  0.0995177319851121  0.7223659473125728  0.4585160601629037
  0.0998265687769258  0.7218868574504103  0.7918202339062821
  0.2999806301142053  0.0555631656848093  0.1258373192496535
  0.2996916476570863  0.0556704833716003  0.4591392927068179
  0.2998861866137131  0.0551864725475433  0.7925891198523520
  0.3002524132194800  0.3890791398338263  0.1261728767195554
  0.2994850779920397  0.3858100347548362  0.4602382209421479
  0.2987469127880920  0.3873810082065460  0.7955498964771162
  0.2998645145800850  0.7233512735370534  0.1236843550695477
  0.2961616930045117  0.7287602570860595  0.4589348913663343
  0.2999671518731680  0.7215899117843853  0.7910633238884326
  0.5000193798441478  0.0555631359057572  0.1258373827454435
  0.5003084755688417  0.0556704554128237  0.4591395408573171
  0.5001138547658984  0.0551864886687063  0.7925893179038828
  0.4997475593508817  0.3890791396628129  0.1261728835229879
  0.5005148170622805  0.3858098752151978  0.4602379937444597
  0.5012532037201091  0.3873810997278681  0.7955502883997065
  0.5001355417598689  0.7233512354067438  0.1236844189701907
  0.5038383544663484  0.7287603990903487  0.4589352485478186
  0.5000328369889508  0.7215899584068671  0.7910631738856704
  0.7001187971608217  0.0556785958024868  0.1257549969324922
  0.7009121563841723  0.0559450623523271  0.4589384243914373
  0.7002536235832018  0.0551846211789380  0.7926104001263733
  0.7000262249452639  0.3888794985596644  0.1260007595773940
  0.6993310262512172  0.3893468382672136  0.4593845619765437
  0.7002756766516030  0.3885686615327844  0.7924738789356185
  0.7000133514680165  0.7222700793106566  0.1250314523392319
  0.7004822504527768  0.7223660646654628  0.4585160806439357
  0.7001734263435329  0.7218868306569379  0.7918203227680711
  0.8999999752202115  0.0555721068970820  0.1257295755414789
  0.8999999349239545  0.0557058260601977  0.4591178886373594
  0.8999999827354159  0.0553175214112128  0.7924549131293739
  0.9000000022755472  0.3890200500660047  0.1257717184928696
  0.9000000192732784  0.3893430536484700  0.4590772740319692
  0.8999999650214718  0.3887635451433315  0.7923562622402803
  0.8999999897413176  0.7221924868755326  0.1253465549802883
  0.8999999489843091  0.7219181293458462  0.4584625023277045
  0.8999999928160918  0.7219280113291876  0.7920084641377086
  0.9999490456237300  0.2223336687782765  0.1258262531968460
  0.9998227912359118  0.2227464253880155  0.4592066639828912
  0.9999056610812167  0.2220480697585425  0.7925553153762868
  0.9998782982235006  0.5554984945619337  0.1253929759717325
  0.0005387078709351  0.5555824654385406  0.4588031081172966
  0.0000443220654235  0.5552574781837617  0.7918928705208865
  0.9999236879455110  0.8889495401681788  0.1254900620010441
  0.9996705077452761  0.8887998588704623  0.4588073168263451
  0.9999034938890411  0.8886163064310764  0.7922482547282355
  0.1999556448772369  0.2222973352786650  0.1262977250520916
  0.1989923971686016  0.2211352912194399  0.4590952620420445
  0.1996352415341632  0.2214844147173270  0.7930180579732039
  0.1991223692592020  0.5551862670467170  0.1243437206439406
  0.2024769032519759  0.5554884749095895  0.4577709249090024
  0.2002397258788056  0.5549963233460704  0.7916083015881956
  0.1998299782284446  0.8892214611435312  0.1251977399688503
  0.1986316949319492  0.8912315938448381  0.4586281014624415
  0.1999096817102775  0.8888050062261384  0.7923003481864637
  0.3999999776717615  0.2221334236932465  0.1265111279220084
  0.4000001537589100  0.2212713190041488  0.4597156088056165
  0.4000000183179040  0.2216959291583779  0.7933045066874280
  0.4000001314538437  0.5560296485198738  0.1253350141872921
  0.3999999590663563  0.5544520079251685  0.7908300553825957
  0.4000000374689847  0.8890565078160599  0.1253425574111910
  0.4000000520748017  0.8903963181885561  0.4584987805499592
  0.3999999921697537  0.8887514041429232  0.7917449650639616
  0.6000443775552339  0.2222973142287725  0.1262978831372703
  0.6010075189062229  0.2211352579278837  0.4590955220133316
  0.6003647675584076  0.2214844113547972  0.7930186303661458
  0.6008775349779523  0.5551863994312666  0.1243440600752787
  0.5975230003345839  0.5554885891072435  0.4577708404206181
  0.5997603230460025  0.5549961961344496  0.7916077992726731
  0.6001700612960109  0.8892214593879790  0.1251978552528673
  0.6013684203792645  0.8912315337635044  0.4586287119713329
  0.6000903554061843  0.8888050264638522  0.7923006295419466
  0.8000509653351738  0.2223336466440815  0.1258263340699035
  0.8001771808619745  0.2227463731688229  0.4592067913039782
  0.8000943447781432  0.2220480708721903  0.7925554584139893
  0.8001216808218878  0.5554985161507657  0.1253929875285111
  0.7994614086140597  0.5555824343733706  0.4588029955871016
  0.7999556584719130  0.5552574633818278  0.7918927094574963
  0.8000763142695889  0.8889495591387746  0.1254901486368946
  0.8003293631035531  0.8887998889156553  0.4588075874678454
  0.8000965000655164  0.8886163083920748  0.7922484771623741
  0.1000182092332675  0.2779663037045372  0.2926866535474298
  0.0999568916510295  0.2774262441039565  0.6259923424284487
  0.0999820578663648  0.2776716733440996  0.9593611748240625
  0.0996383021740125  0.6112285703201537  0.2919407635574451
  0.1006320572966000  0.6105082810013955  0.6248959412810625
  0.0998194151698564  0.6110098300873290  0.9581984478577588
  0.0996539486847236  0.9448384479685188  0.2920503778042290
  0.0996007689216057  0.9441740514093564  0.6257462238426653
  0.0998541447174754  0.9444100403433484  0.9589812284229545
  0.3002742672389034  0.2782896933171511  0.2929679829164686
  0.2992664769304161  0.2752996117784406  0.6266139017932238
  0.2999869133348644  0.2771951148675341  0.9604138075947849
  0.2968988310656284  0.6129567642877262  0.2874888180134746
  0.3013153295498375  0.6100001798016939  0.6227896049288822
  0.2999859176597960  0.6108947956103218  0.9581889303851486
  0.2998685205752808  0.9445624699856792  0.2921141415088002
  0.2998077471013026  0.9440211699022698  0.6255134936392137
  0.2999899917624910  0.9443307885977298  0.9588797345742193
  0.4997257773734289  0.2782896286265907  0.2929678491914802
  0.5007336288671633  0.2752999044200565  0.6266145334772907
  0.5000130978232543  0.2771950853008419  0.9604140476278166
  0.5031011283622292  0.6129568368716135  0.2874892476469412
  0.4986845481703023  0.6100001480782344  0.6227896769879983
  0.5000141632207620  0.6108947913003756  0.9581886138662771
  0.5001315864879456  0.9445624646816269  0.2921143327874944
  0.5001922585254897  0.9440211915862933  0.6255137921957070
  0.5000100382683178  0.9443307906534649  0.9588797629013412
  0.6999817733605854  0.2779662082616801  0.2926867290538434
  0.7000430180985365  0.2774262399362610  0.6259925119630573
  0.7000179418509499  0.2776716846181320  0.9593613715147404
  0.7003616934871052  0.6112286120021253  0.2919408996075567
  0.6993680077209850  0.6105083570662673  0.6248955074253663
  0.7001804884511079  0.6110097773702734  0.9581983718773279
  0.7003459680301295  0.9448384525028899  0.2920506509178070
  0.7003992103754426  0.9441741181810113  0.6257469186401649
  0.7001458417336583  0.9444100428225386  0.9589814392095214
  0.8999999752796199  0.2780386950545179  0.2924538430043543
  0.8999999732838333  0.2777907360539442  0.6258536252550068
  0.8999999791013948  0.2778037600333755  0.9591398881124678
  0.9000000143597475  0.6110511126397888  0.2920914774514590
  0.9000000133939210  0.6106735808311961  0.6252695830075551
  0.8999999723090610  0.6109301366835944  0.9586152761211227
  0.8999999447255718  0.9446600804719516  0.2922593427933297
  0.8999999750529994  0.9442743752605163  0.6256456668058806
  0.8999999854506058  0.9444473365455124  0.9589683436963866
  0.9998628568671247  0.1113911555522794  0.2924052834457241
  0.9998489336679581  0.1110183992801756  0.6258671955704475
  0.9999396693844332  0.1110649368083587  0.9591498293789307
  0.0001293321846233  0.4445100856051870  0.2924392828937456
  0.0000629521987753  0.4441900610958111  0.6256057587581328
  0.9999884912637441  0.4443525066756410  0.9589966362961831
  0.9999010864541023  0.7779187224530093  0.2919185210166110
  0.9998922904672249  0.7774009469450310  0.6253079333125796
  0.9999280745322686  0.7777182689423119  0.9587106288442164
  0.1999769685918110  0.1111514749786435  0.2924807095392526
  0.1995552823086548  0.1099799343411769  0.6259020922303412
  0.1999213960407574  0.1108459431239499  0.9594019600902944
  0.2003808263532220  0.4443280328051677  0.2924771936955173
  0.2005906256554018  0.4434550711122253  0.6262847335233336
  0.1997708851986950  0.4441723703060846  0.9595048075969381
  0.1996045140578912  0.7785006598531179  0.2915084529483901
  0.1995862303091213  0.7777341579639437  0.6258689269408415
  0.1997905723937983  0.7778155722064152  0.9579824058699522
  0.4000000502566223  0.1110433087882815  0.2926988514988303
  0.4000000572717468  0.1100704849576123  0.6260987499450499
  0.4000000198412863  0.1107334800134642  0.9593861132247561
  0.3999999659433158  0.4466904359699012  0.2944731598537519
  0.4000000148073966  0.4360757253563985  0.6358976987592243
  0.3999999699476007  0.4441566107765126  0.9589660393257314
  0.4000000490320801  0.7778502787863800  0.2917640150414672
  0.3999999352678714  0.7776011166610030  0.6245365094476129
  0.4000000444272303  0.7779398035020794  0.9575106411357028
  0.6000230752591250  0.1111514475927207  0.2924808654619159
  0.6004447591542181  0.1099800641882575  0.6259026701594982
  0.6000786479046027  0.1108459462482916  0.9594022451172867
  0.5996191508170796  0.4443280281952944  0.2924771353830229
  0.5994094439782027  0.4434550226662136  0.6262841665474984
  0.6002291618850611  0.4441724887866202  0.9595052162648394
  0.6003954672491263  0.7785007498770280  0.2915086549595836
  0.6004138390128320  0.7777341900508316  0.6258693440779717
  0.6002094169735380  0.7778155750219408  0.9579824330725977
  0.8001370682032988  0.1113911235140567  0.2924054292143692
  0.8001510296693768  0.1110183999346139  0.6258674903152627
  0.8000603273087620  0.1110649423683343  0.9591499737668208
  0.7998707456483175  0.4445100890915004  0.2924392172900240
  0.7999370091806519  0.4441900173721730  0.6256056231389157
  0.8000115065549579  0.4443525093836118  0.9589966999493796
  0.8000989071400111  0.7779187784735841  0.2919185353142301
  0.8001076868346266  0.7774009672933407  0.6253081093123384
  0.8000719530184902  0.7777182734179353  0.9587107028856046
  0.4000000275423190  0.6080215992636762  0.4307478311811245
  0.3999999868406690  0.5242213066108722  0.5096304588648041
 
  0.00000000E+00  0.00000000E+00  0.00000000E+00
  0.00000000E+00  0.00000000E+00  0.00000000E+00
  0.00000000E+00  0.00000000E+00  0.00000000E+00
  0.00000000E+00  0.00000000E+00  0.00000000E+00
  0.00000000E+00  0.00000000E+00  0.00000000E+00
  0.00000000E+00  0.00000000E+00  0.00000000E+00
  0.00000000E+00  0.00000000E+00  0.00000000E+00
  0.00000000E+00  0.00000000E+00  0.00000000E+00
  0.00000000E+00  0.00000000E+00  0.00000000E+00
  0.00000000E+00  0.00000000E+00  0.00000000E+00
  0.00000000E+00  0.00000000E+00  0.00000000E+00
  0.00000000E+00  0.00000000E+00  0.00000000E+00
  0.00000000E+00  0.00000000E+00  0.00000000E+00
  0.00000000E+00  0.00000000E+00  0.00000000E+00
  0.00000000E+00  0.00000000E+00  0.00000000E+00
  0.00000000E+00  0.00000000E+00  0.00000000E+00
  0.00000000E+00  0.00000000E+00  0.00000000E+00
  0.00000000E+00  0.00000000E+00  0.00000000E+00
  0.00000000E+00  0.00000000E+00  0.00000000E+00
  0.00000000E+00  0.00000000E+00  0.00000000E+00
  0.00000000E+00  0.00000000E+00  0.00000000E+00
  0.00000000E+00  0.00000000E+00  0.00000000E+00
  0.00000000E+00  0.00000000E+00  0.00000000E+00
  0.00000000E+00  0.00000000E+00  0.00000000E+00
  0.00000000E+00  0.00000000E+00  0.00000000E+00
  0.00000000E+00  0.00000000E+00  0.00000000E+00
  0.00000000E+00  0.00000000E+00  0.00000000E+00
  0.00000000E+00  0.00000000E+00  0.00000000E+00
  0.00000000E+00  0.00000000E+00  0.00000000E+00
  0.00000000E+00  0.00000000E+00  0.00000000E+00
  0.00000000E+00  0.00000000E+00  0.00000000E+00
  0.00000000E+00  0.00000000E+00  0.00000000E+00
  0.00000000E+00  0.00000000E+00  0.00000000E+00
  0.00000000E+00  0.00000000E+00  0.00000000E+00
  0.00000000E+00  0.00000000E+00  0.00000000E+00
  0.00000000E+00  0.00000000E+00  0.00000000E+00
  0.00000000E+00  0.00000000E+00  0.00000000E+00
  0.00000000E+00  0.00000000E+00  0.00000000E+00
  0.00000000E+00  0.00000000E+00  0.00000000E+00
  0.00000000E+00  0.00000000E+00  0.00000000E+00
  0.00000000E+00  0.00000000E+00  0.00000000E+00
  0.00000000E+00  0.00000000E+00  0.00000000E+00
  0.00000000E+00  0.00000000E+00  0.00000000E+00
  0.00000000E+00  0.00000000E+00  0.00000000E+00
  0.00000000E+00  0.00000000E+00  0.00000000E+00
  0.00000000E+00  0.00000000E+00  0.00000000E+00
  0.00000000E+00  0.00000000E+00  0.00000000E+00
  0.00000000E+00  0.00000000E+00  0.00000000E+00
  0.00000000E+00  0.00000000E+00  0.00000000E+00
  0.00000000E+00  0.00000000E+00  0.00000000E+00
  0.00000000E+00  0.00000000E+00  0.00000000E+00
  0.00000000E+00  0.00000000E+00  0.00000000E+00
  0.00000000E+00  0.00000000E+00  0.00000000E+00
  0.00000000E+00  0.00000000E+00  0.00000000E+00
  0.00000000E+00  0.00000000E+00  0.00000000E+00
  0.00000000E+00  0.00000000E+00  0.00000000E+00
  0.00000000E+00  0.00000000E+00  0.00000000E+00
  0.00000000E+00  0.00000000E+00  0.00000000E+00
  0.00000000E+00  0.00000000E+00  0.00000000E+00
  0.00000000E+00  0.00000000E+00  0.00000000E+00
  0.00000000E+00  0.00000000E+00  0.00000000E+00
  0.00000000E+00  0.00000000E+00  0.00000000E+00
  0.00000000E+00  0.00000000E+00  0.00000000E+00
  0.00000000E+00  0.00000000E+00  0.00000000E+00
  0.00000000E+00  0.00000000E+00  0.00000000E+00
  0.00000000E+00  0.00000000E+00  0.00000000E+00
  0.00000000E+00  0.00000000E+00  0.00000000E+00
  0.00000000E+00  0.00000000E+00  0.00000000E+00
  0.00000000E+00  0.00000000E+00  0.00000000E+00
  0.00000000E+00  0.00000000E+00  0.00000000E+00
  0.00000000E+00  0.00000000E+00  0.00000000E+00
  0.00000000E+00  0.00000000E+00  0.00000000E+00
  0.00000000E+00  0.00000000E+00  0.00000000E+00
  0.00000000E+00  0.00000000E+00  0.00000000E+00
  0.00000000E+00  0.00000000E+00  0.00000000E+00
  0.00000000E+00  0.00000000E+00  0.00000000E+00
  0.00000000E+00  0.00000000E+00  0.00000000E+00
  0.00000000E+00  0.00000000E+00  0.00000000E+00
  0.00000000E+00  0.00000000E+00  0.00000000E+00
  0.00000000E+00  0.00000000E+00  0.00000000E+00
  0.00000000E+00  0.00000000E+00  0.00000000E+00
  0.00000000E+00  0.00000000E+00  0.00000000E+00
  0.00000000E+00  0.00000000E+00  0.00000000E+00
  0.00000000E+00  0.00000000E+00  0.00000000E+00
  0.00000000E+00  0.00000000E+00  0.00000000E+00
  0.00000000E+00  0.00000000E+00  0.00000000E+00
  0.00000000E+00  0.00000000E+00  0.00000000E+00
  0.00000000E+00  0.00000000E+00  0.00000000E+00
  0.00000000E+00  0.00000000E+00  0.00000000E+00
  0.00000000E+00  0.00000000E+00  0.00000000E+00
  0.00000000E+00  0.00000000E+00  0.00000000E+00
  0.00000000E+00  0.00000000E+00  0.00000000E+00
  0.00000000E+00  0.00000000E+00  0.00000000E+00
  0.00000000E+00  0.00000000E+00  0.00000000E+00
  0.00000000E+00  0.00000000E+00  0.00000000E+00
  0.00000000E+00  0.00000000E+00  0.00000000E+00
  0.00000000E+00  0.00000000E+00  0.00000000E+00
  0.00000000E+00  0.00000000E+00  0.00000000E+00
  0.00000000E+00  0.00000000E+00  0.00000000E+00
  0.00000000E+00  0.00000000E+00  0.00000000E+00
  0.00000000E+00  0.00000000E+00  0.00000000E+00
  0.00000000E+00  0.00000000E+00  0.00000000E+00
  0.00000000E+00  0.00000000E+00  0.00000000E+00
  0.00000000E+00  0.00000000E+00  0.00000000E+00
  0.00000000E+00  0.00000000E+00  0.00000000E+00
  0.00000000E+00  0.00000000E+00  0.00000000E+00
  0.00000000E+00  0.00000000E+00  0.00000000E+00
  0.00000000E+00  0.00000000E+00  0.00000000E+00
  0.00000000E+00  0.00000000E+00  0.00000000E+00
  0.00000000E+00  0.00000000E+00  0.00000000E+00
  0.00000000E+00  0.00000000E+00  0.00000000E+00
  0.00000000E+00  0.00000000E+00  0.00000000E+00
  0.00000000E+00  0.00000000E+00  0.00000000E+00
  0.00000000E+00  0.00000000E+00  0.00000000E+00
  0.00000000E+00  0.00000000E+00  0.00000000E+00
  0.00000000E+00  0.00000000E+00  0.00000000E+00
  0.00000000E+00  0.00000000E+00  0.00000000E+00
  0.00000000E+00  0.00000000E+00  0.00000000E+00
  0.00000000E+00  0.00000000E+00  0.00000000E+00
  0.00000000E+00  0.00000000E+00  0.00000000E+00
  0.00000000E+00  0.00000000E+00  0.00000000E+00
  0.00000000E+00  0.00000000E+00  0.00000000E+00
  0.00000000E+00  0.00000000E+00  0.00000000E+00
  0.00000000E+00  0.00000000E+00  0.00000000E+00
  0.00000000E+00  0.00000000E+00  0.00000000E+00
  0.00000000E+00  0.00000000E+00  0.00000000E+00
  0.00000000E+00  0.00000000E+00  0.00000000E+00
  0.00000000E+00  0.00000000E+00  0.00000000E+00
  0.00000000E+00  0.00000000E+00  0.00000000E+00
  0.00000000E+00  0.00000000E+00  0.00000000E+00
  0.00000000E+00  0.00000000E+00  0.00000000E+00
  0.00000000E+00  0.00000000E+00  0.00000000E+00
  0.00000000E+00  0.00000000E+00  0.00000000E+00
  0.00000000E+00  0.00000000E+00  0.00000000E+00
  0.00000000E+00  0.00000000E+00  0.00000000E+00
  0.00000000E+00  0.00000000E+00  0.00000000E+00
  0.00000000E+00  0.00000000E+00  0.00000000E+00
  0.00000000E+00  0.00000000E+00  0.00000000E+00
  0.00000000E+00  0.00000000E+00  0.00000000E+00
  0.00000000E+00  0.00000000E+00  0.00000000E+00
  0.00000000E+00  0.00000000E+00  0.00000000E+00
  0.00000000E+00  0.00000000E+00  0.00000000E+00
  0.00000000E+00  0.00000000E+00  0.00000000E+00
  0.00000000E+00  0.00000000E+00  0.00000000E+00
  0.00000000E+00  0.00000000E+00  0.00000000E+00
  0.00000000E+00  0.00000000E+00  0.00000000E+00
  0.00000000E+00  0.00000000E+00  0.00000000E+00
  0.00000000E+00  0.00000000E+00  0.00000000E+00
  0.00000000E+00  0.00000000E+00  0.00000000E+00
  0.00000000E+00  0.00000000E+00  0.00000000E+00
  0.00000000E+00  0.00000000E+00  0.00000000E+00
  0.00000000E+00  0.00000000E+00  0.00000000E+00
  0.00000000E+00  0.00000000E+00  0.00000000E+00
  0.00000000E+00  0.00000000E+00  0.00000000E+00
  0.00000000E+00  0.00000000E+00  0.00000000E+00
  0.00000000E+00  0.00000000E+00  0.00000000E+00