GaN_ONH                                 
    1.000000000000000     
    15.8909244537000003    0.0000000000000000    0.0000000000000000
     0.0000000000000000   16.5143318175999987    0.0000000000000000
     0.0000000000000000    0.0000000000000000   15.4982528686999999
   Ga   N    O    H 
   180   179     1     1
Direct
  0.0997629370591131  0.0557472987876228  0.3333275693731848
  0.0994935590147967  0.0549810674001094  0.6670089745261251
  0.0998660924968221  0.0553786840638843  0.0001839986296661
  0.1001483908011313  0.3889602171412606  0.3336586560248194
  0.0998348589286653  0.3885483681711180  0.6668187654245621
  0.0998349852610469  0.3887358256822404  0.0003958537832530
  0.1000766770968651  0.7224949069628727  0.3328590335759972
  0.0998692863319766  0.7217344423054991  0.6663305275243535
  0.1000705843744954  0.7220912838941127  0.9993955046067602
  0.2999383840133918  0.0555060112827968  0.3334502370521131
  0.2998355135233878  0.0548552671281742  0.6668860928787905
  0.2999923888951893  0.0552716087210468  0.0002836349572428
  0.3003746917558112  0.3892314584665851  0.3347096696328803
  0.2979805429879704  0.3851043489807497  0.6706886878947460
  0.3000945681082155  0.3887213641591531  0.0002455117549241
  0.2997584361233676  0.7229415001646947  0.3334378945561721
  0.3003439947869204  0.7215842540867213  0.6652398879060505
  0.3000763221673774  0.7224867546607709  0.9984088517076637
  0.5000616238753706  0.0555060010667625  0.3334502452534602
  0.5001644668930000  0.0548552674849164  0.6668861228048681
  0.5000076155904357  0.0552716048925146  0.0002836243106765
  0.4996253276729965  0.3892314481415678  0.3347095760633051
  0.5020194672556016  0.3851045005052884  0.6706888190963911
  0.4999054598880394  0.3887213610364670  0.0002454915048043
  0.5002416005863581  0.7229415005399537  0.3334379612799222
  0.4996560223256388  0.7215842669297955  0.6652397997696687
  0.4999236950416806  0.7224867401821624  0.9984088427180262
  0.7002370577975281  0.0557472926368523  0.3333276204593529
  0.7005064232513399  0.0549810542976658  0.6670090991611971
  0.7001339185260306  0.0553786692612327  0.0001840233691796
  0.6998516178505692  0.3889602252660539  0.3336585986578868
  0.7001651491997988  0.3885483539977587  0.6668187869596061
  0.7001650387260914  0.3887358123079645  0.0003958998617789
  0.6999233133712581  0.7224949010814191  0.3328590204552216
  0.7001307060591523  0.7217344385417187  0.6663305633584163
  0.6999294241612304  0.7220913109045919  0.9993954883278993
  0.8999999817530835  0.0557116370278926  0.3334018886713985
  0.8999999751647536  0.0553381686318189  0.6667813779173215
  0.8999999810725186  0.0554769709713687  0.0000484783845004
  0.8999999855633405  0.3890478536906853  0.3333939323472088
  0.9000000011683298  0.3888689447876165  0.6667106882260421
  0.8999999846280105  0.3889359048652660  0.0000508258978478
  0.8999999768334348  0.7222452409775344  0.3329024033417514
  0.8999999770853364  0.7218233475998224  0.6664265076811245
  0.8999999984055478  0.7220790181096758  0.9996852066411209
  0.9999159558302146  0.2224314379944667  0.3335807017549733
  0.9997953893806740  0.2220939651830743  0.6669478571054008
  0.9999097545818548  0.2221747916625297  0.0002257615263744
  0.9999520978402813  0.5556210031107021  0.3331212084688380
  0.0002223216027175  0.5553071470530283  0.6661847874179808
  0.9999852155361717  0.5555104532068168  0.9996828704445664
  0.9999083215276385  0.8889625209492795  0.3331218141840475
  0.9998119882173996  0.8884258324993642  0.6666090434089899
  0.9999287804730762  0.8887366431613640  0.9998441870165856
  0.2000306170708517  0.2222136361440030  0.3335389480651387
  0.1991795489673897  0.2206529956966661  0.6674595139200059
  0.1998026066786242  0.2218875862046605  0.0008212214942540
  0.2000290890122926  0.5556156248355805  0.3316973666645290
  0.2008725001937731  0.5548488577076236  0.6656682921650094
  0.1996990751629767  0.5554047619964592  0.9990923512940845
  0.1996422909949963  0.8892688132090280  0.3330535926382872
  0.1998000087881728  0.8887082114268487  0.6667981889334081
  0.1999650023912680  0.8887341942018493  0.9996246489505071
  0.4000000007218247  0.2220949284795511  0.3339327955061005
  0.4000000019111312  0.2209577342140362  0.6676381841689437
  0.3999999946376676  0.2216880806513772  0.0011397506190273
  0.4000000116999303  0.5606433188959062  0.3215996340601907
  0.3999999950555235  0.5511618277324423  0.6639659254984368
  0.3999999972463968  0.5553286251509838  0.9993214369287361
  0.4000000166463806  0.8890698110327134  0.3328530042407533
  0.4000000094760949  0.8885024221551536  0.6660041021841685
  0.4000000203213361  0.8887176966811458  0.9996741700381475
  0.5999693858984113  0.2222136343646903  0.3335389475002927
  0.6008204485912678  0.2206529777051556  0.6674597063196879
  0.6001973878871351  0.2218875825713713  0.0008212867848962
  0.5999709330053564  0.5556156140977592  0.3316973682816461
  0.5991275166623725  0.5548488693337867  0.6656681048187572
  0.6003009402792671  0.5554047536072800  0.9990924467183254
  0.6003577465434496  0.8892688295919550  0.3330536932956683
  0.6001999651618285  0.8887082221860574  0.6667982568018781
  0.6000350302282540  0.8887342075366546  0.9996246527218121
  0.8000840297833172  0.2224314190007286  0.3335807302109025
  0.8002046079815256  0.2220939492972785  0.6669478980500210
  0.8000902500777324  0.2221747725838178  0.0002257835082502
  0.8000478924201290  0.5556210135326729  0.3331212304922238
  0.7997776772916682  0.5553071341456145  0.6661847164496545
  0.8000147778525593  0.5555104394674711  0.9996828686207311
  0.8000916535805047  0.8889625018480363  0.3331218455891412
  0.8001879978081688  0.8884258429532242  0.6666091004979439
  0.8000712037930108  0.8887366481730991  0.9998442109250342
  0.0999184480450059  0.2778656276900054  0.1671079000175057
  0.0999623231616757  0.2779631838952841  0.5003292281984689
  0.0998610334780625  0.2775857115656383  0.8337730932343865
  0.0997736872491114  0.6113048864057090  0.1662212506332275
  0.1008512601751461  0.6111856473189919  0.4992624521432409
  0.1001590144596559  0.6108876076692372  0.8325783887664107
  0.0998768347473993  0.9446244443190905  0.1664877356736135
  0.0988280200180669  0.9454011964361653  0.5000899287702142
  0.0998154644487633  0.9441604702952938  0.8333835230076660
  0.3000842262474511  0.2778670608129452  0.1673436424097653
  0.2990209144851622  0.2749482174780034  0.5009782348527873
  0.2997031496387955  0.2763982625538256  0.8350993687669351
  0.2985765022960574  0.6122912013936798  0.1631123301348819
  0.2983072972674476  0.6171223503478873  0.4974617402565770
  0.3004993040308680  0.6104815317892049  0.8322963137994926
  0.2999583766532657  0.9444201964605318  0.1664688729050791
  0.2996202963502224  0.9447212965342103  0.4997511987944949
  0.3000645872061719  0.9440764526820153  0.8332471085286141
  0.4999157883564375  0.2778670690835916  0.1673436321711287
  0.5009791002559464  0.2749482182493189  0.5009784152079030
  0.5002968875158225  0.2763982569423925  0.8350994566016133
  0.5014234864410060  0.6122912304962597  0.1631125297759465
  0.5016926989606975  0.6171223935445584  0.4974618525874647
  0.4995006903537241  0.6104815240834542  0.8322961749166035
  0.5000416337497380  0.9444201972378442  0.1664689010163169
  0.5003797584946004  0.9447212712827792  0.4997512785684992
  0.4999354464174323  0.9440764498562295  0.8332471016389998
  0.7000815420124165  0.2778656017087332  0.1671079285875054
  0.7000376527628813  0.2779631857106497  0.5003292376779759
  0.7001389694073137  0.2775856893801849  0.8337731013173360
  0.7002262889761542  0.6113048810978695  0.1662212963657191
  0.6991487125211878  0.6111856366884058  0.4992623205067295
  0.6998409874511613  0.6108876261297770  0.8325783300725182
  0.7001231669065779  0.9446244471688217  0.1664877584293770
  0.7011719808147432  0.9454012004200576  0.5000901838521147
  0.7001845111756320  0.9441604842719536  0.8333835587179808
  0.8999999911121037  0.2779400308172266  0.1668100075741688
  0.8999999870632323  0.2782402420256255  0.5002401557431311
  0.8999999998752983  0.2777385284838741  0.8334912995879411
  0.8999999808862924  0.6111455249219587  0.1663977459107098
  0.8999999804939662  0.6109182195969084  0.4997005614032722
  0.8999999964407266  0.6108716807822391  0.8328890451145808
  0.8999999888673429  0.9445087530836778  0.1665768146461564
  0.8999999766304398  0.9445461569396549  0.4999590148910923
  0.8999999638756293  0.9442266244617604  0.8332628844119193
  0.9999026805247723  0.1112692286497803  0.1667809225243486
  0.9996232518137487  0.1116852009284947  0.5002261644293590
  0.9998739854175863  0.1109819085678164  0.8335216639867643
  0.0000100833652640  0.4445652222113807  0.1667201360221275
  0.0002775054894834  0.4445105785562887  0.4999735493290797
  0.9998976848291061  0.4443397128366782  0.8332541288987767
  0.0000064753707372  0.7778402205100563  0.1663055011246643
  0.9995172719447223  0.7776253131355246  0.4997198587029708
  0.9999366657071036  0.7774884542579911  0.8330922278430316
  0.1999981981551768  0.1110891623017895  0.1669342138427952
  0.1993465293065736  0.1104466302782892  0.5002415350325207
  0.1997943252800561  0.1105147247142592  0.8338563853542069
  0.2001180011959264  0.4444952253717218  0.1666577934147166
  0.2013981545110158  0.4442411002626874  0.5006264537597660
  0.1994335484494076  0.4442334325761290  0.8340626064468328
  0.1999120074383690  0.7781965872788653  0.1661477246913102
  0.1973523917653411  0.7809996202135285  0.5003984909538784
  0.2000314864112064  0.7774402958296038  0.8323732549047698
  0.4000000176517133  0.1109305814534044  0.1671195848325136
  0.4000000131954948  0.1102410839855551  0.5003653819324810
  0.4000000201608955  0.1104842097771715  0.8338005065748550
  0.3999999894417527  0.4448276552019277  0.1669694951052885
  0.3999999834266745  0.4321292771100764  0.5097845174682939
  0.3999999978262494  0.4434814055454609  0.8328692759449609
  0.4000000111981947  0.7778300501875025  0.1661210621772480
  0.4000000011804730  0.7791200381516300  0.4983759910137038
  0.4000000100142174  0.7774197257601577  0.8318983533337756
  0.6000018299173052  0.1110891646425730  0.1669342283730744
  0.6006535082148549  0.1104466347377335  0.5002416958085603
  0.6002056812630592  0.1105147274020932  0.8338564355310580
  0.5998819866267822  0.4444952235845647  0.1666577668106395
  0.5986018500949254  0.4442410901638358  0.5006262335052527
  0.6005664716037826  0.4442334327485138  0.8340627649142693
  0.6000880236099584  0.7781965867950923  0.1661477652484785
  0.6026476245069586  0.7809995754387136  0.5003986879566481
  0.5999685253528276  0.7774402937194695  0.8323732505417176
  0.8000973290092021  0.1112692455159190  0.1667809526531370
  0.8003767518493308  0.1116852189931485  0.5002262679591304
  0.8001260231683393  0.1109819262198296  0.8335216774447777
  0.7999899074318404  0.4445652213947824  0.1667201298825267
  0.7997225109813065  0.4445105760384308  0.4999734897708333
  0.8001023332083737  0.4443397092793104  0.8332541459689122
  0.7999935452432843  0.7778402387192060  0.1663055227368163
  0.8004827224742033  0.7776253325512825  0.4997199349648974
  0.8000633278091271  0.7774884725309973  0.8330922375338184
  0.0998163217374113  0.0557735504120555  0.1257625729775548
  0.0991616176962402  0.0560633074141508  0.4588645824132652
  0.0998594981920038  0.0552442625201260  0.7926235132464297
  0.0999185530578445  0.3888864253684223  0.1260018079567202
  0.1007539729528936  0.3893330723000254  0.4593174309323894
  0.0998629936127603  0.3886343255918006  0.7924945075768000
  0.0998979522254317  0.7223143416230131  0.1250615388147636
  0.0995371565109613  0.7223931550511542  0.4585834514317910
  0.0999156296708065  0.7219340390110808  0.7918733774043633
  0.2998844181596994  0.0556601938233441  0.1258086178776405
  0.2996627839675149  0.0557654237257083  0.4591613816415882
  0.2999024139898682  0.0552490798560001  0.7925071284756490
  0.3001525614479577  0.3890270786675394  0.1261340043159925
  0.2994861401377976  0.3857243137051374  0.4603229487856512
  0.2987677734536130  0.3873836687406574  0.7954514976437606
  0.2997462099688322  0.7234001372254899  0.1237124689354963
  0.2961378301355714  0.7287752128326429  0.4590662149002600
  0.2999682842231364  0.7216018642293436  0.7909465882269507
  0.5001156005188462  0.0556601958383225  0.1258086164839180
  0.5003372222804551  0.0557654243597753  0.4591613870179808
  0.5000976173615197  0.0552490783750372  0.7925071258230295
  0.4998474500020449  0.3890270779720530  0.1261340004863377
  0.5005138468482043  0.3857243160090296  0.4603229525627330
  0.5012322542049495  0.3873836595370684  0.7954515094271668
  0.5002538230491905  0.7234001425785768  0.1237124745579143
  0.5038621835892551  0.7287752232979000  0.4590662238214082
  0.5000317288363734  0.7216018682014125  0.7909465900631992
  0.7001836901845124  0.0557735471983559  0.1257625768829535
  0.7008383932942970  0.0560632994188895  0.4588645866875705
  0.7001405191536205  0.0552442659370691  0.7926235238851729
  0.7000814413434525  0.3888864253461752  0.1260018086180437
  0.6992460341734493  0.3893330722251910  0.4593174198186342
  0.7001370041857055  0.3886343240827499  0.7924945150041245
  0.7001020675466392  0.7223143359223714  0.1250615323481213
  0.7004628421655932  0.7223931531262584  0.4585834524512777
  0.7000843630183524  0.7219340356685030  0.7918733813609778
  0.8999999898507625  0.0556375114303626  0.1257224607366781
  0.8999999886345620  0.0557608170455176  0.4589460713700029
  0.8999999913395698  0.0553615889280248  0.7925064785356054
  0.8999999865614967  0.3890414555777484  0.1257681023620264
  0.8999999951520081  0.3893549010059059  0.4589188070198714
  0.8999999904843321  0.3888358554938152  0.7924134667795473
  0.8999999955237357  0.7222271563708391  0.1253803985088394
  0.8999999896046873  0.7219255564607391  0.4584220052999787
  0.8999999863551338  0.7219831638484314  0.7921029442705896
  0.9999519777455248  0.2223773203561069  0.1258941646065005
  0.9999024088351541  0.2227869510984552  0.4590977973360049
  0.9999977316974966  0.2221088865034068  0.7926546097913411
  0.9998586891005804  0.5555878492009577  0.1253891233054065
  0.0006185519526414  0.5556443154895883  0.4587188719971326
  0.0001291473662113  0.5553989786037544  0.7919034357598465
  0.9999015627124035  0.8889570648564195  0.1254764654322157
  0.9997246095795840  0.8887959151558503  0.4587157947130058
  0.9999815295194062  0.8885833419693808  0.7922923805356571
  0.1998701365807535  0.2223273771377832  0.1263600170897238
  0.1990731744154666  0.2212183547525963  0.4591378405110744
  0.1996909432903440  0.2215326370770147  0.7930431163713245
  0.1990118488495228  0.5552645857561288  0.1243781708671019
  0.2024620762608279  0.5555161099161164  0.4578207810020032
  0.2003065952716010  0.5551304325982460  0.7914405988663145
  0.1996929122590930  0.8892607479349808  0.1251684571915608
  0.1986109183365392  0.8912435159264519  0.4586701590645461
  0.1999498437426694  0.8887973372624751  0.7922804228983952
  0.4000000129347256  0.2221577536650512  0.1265645622747331
  0.4000000049923713  0.2212757489731817  0.4598046144648493
  0.4000000161642205  0.2217129874100102  0.7932445751753151
  0.4000000004215423  0.5560925750653493  0.1252726952037873
  0.4000000032662356  0.5545247803414298  0.7906427682465674
  0.4000000092353844  0.8890819841012930  0.1252657204144509
  0.4000000128443872  0.8904411780020061  0.4585666761572482
  0.4000000128098122  0.8887056893980705  0.7916268617511871
  0.6001298641922289  0.2223273705805112  0.1263600091437244
  0.6009268486229337  0.2212183465798769  0.4591378428183417
  0.6003090681551466  0.2215326269951522  0.7930431187320530
  0.6009881333583846  0.5552645797394234  0.1243781842348764
  0.5975379365328820  0.5555161107462435  0.4578207669075069
  0.5996934089555214  0.5551304286358618  0.7914405991346012
  0.6003071202643993  0.8892607434500848  0.1251684574756216
  0.6013891210163059  0.8912435047750521  0.4586701700784914
  0.6000501897590910  0.8887973302025722  0.7922804226333841
  0.8000480121476699  0.2223773184023772  0.1258941633934548
  0.8000975755479308  0.2227869512234113  0.4590977996790835
  0.8000022908182214  0.2221088833081246  0.7926546101679358
  0.8001412924919901  0.5555878480487345  0.1253891250734286
  0.7993814436696808  0.5556443157253108  0.4587188679144180
  0.7998708306433550  0.5553989757975867  0.7919034327855359
  0.8000984610230180  0.8889570619694985  0.1254764651480981
  0.8002753858087563  0.8887959118132654  0.4587157940497639
  0.8000184314441831  0.8885833390175376  0.7922923836308878
  0.0999887323798733  0.2778833378614328  0.2926941563804957
  0.1001041715136004  0.2773624784789275  0.6259796745492060
  0.1000054875257317  0.2776333252156563  0.9594438917545656
  0.0996012946035859  0.6112120907812907  0.2919630965257980
  0.1007947976447312  0.6105284424790878  0.6249332616261339
  0.0998171441271086  0.6110200345149793  0.9582026540259282
  0.0996106209321442  0.9448080735257123  0.2920158585585962
  0.0997426193027976  0.9440497787652029  0.6257080043647414
  0.0998548503612559  0.9443442052671513  0.9589720403691321
  0.3001676193184303  0.2781422109472592  0.2930791241928729
  0.2993050476792009  0.2752426241572236  0.6266476413368414
  0.2999492472029524  0.2771249040792078  0.9603615243617922
  0.2968673638875375  0.6129753539442884  0.2876877979837693
  0.3013815849676266  0.6100126711181485  0.6227070954451676
  0.2999031945477236  0.6109158104529514  0.9580288798236345
  0.2997807962507059  0.9445364882533568  0.2921416596873640
  0.2998342293256535  0.9439311071641302  0.6254903598379253
  0.2999430582556386  0.9442899035645869  0.9587438877637403
  0.4998323957019145  0.2781422117976793  0.2930791209744483
  0.5006949599507392  0.2752426288737778  0.6266476489460009
  0.5000507542728988  0.2771249035071711  0.9603615266653931
  0.5031326487350453  0.6129753487310718  0.2876878098452571
  0.4986184254410969  0.6100126630373947  0.6227070814312682
  0.5000968079110997  0.6109158086386089  0.9580288829424837
  0.5002192086641083  0.9445364830940491  0.2921416649190475
  0.5001657609873298  0.9439311139623402  0.6254903587387157
  0.5000569607927444  0.9442898992277964  0.9587438916947398
  0.7000112746920064  0.2778833391981484  0.2926941559762821
  0.6998958151860669  0.2773624765157903  0.6259796763349562
  0.6999945037352363  0.2776333245685508  0.9594438932937503
  0.7003986806448470  0.6112120922055665  0.2919630926019181
  0.6992051877955207  0.6105284453262609  0.6249332552941395
  0.7001828566967273  0.6110200447599327  0.9582026554196862
  0.7003893810879047  0.9448080851752736  0.2920158551157396
  0.7002573540974283  0.9440497778926422  0.6257080032289033
  0.7001451608780140  0.9443442032464602  0.9589720416120205
  0.8999999901350932  0.2779918548105471  0.2923715175231411
  0.8999999874365940  0.2777574030138598  0.6258034614664261
  0.8999999896268349  0.2777921615894327  0.9592723096554264
  0.8999999869331532  0.6110615138933032  0.2920347491674464
  0.8999999862304620  0.6107057349464294  0.6252706076772743
  0.8999999857632446  0.6109697035108010  0.9586787073322875
  0.8999999846634594  0.9446306714555449  0.2921448142821136
  0.8999999891384007  0.9441737691786095  0.6255811424990557
  0.8999999908739866  0.9443661394554070  0.9590047771812529
  0.9998709436541822  0.1114136674439521  0.2923320428185599
  0.9999677268047312  0.1109946668072142  0.6258283751585856
  0.9999787414499960  0.1110747490800277  0.9592444909391730
  0.0001074154875525  0.4444558491847537  0.2923552610047018
  0.0001848663747624  0.4441787397431052  0.6255141661134372
  0.0000275485044478  0.4443574704682871  0.9590331799953735
  0.9998821389171840  0.7778648599515479  0.2919009863291427
  0.9999820681437412  0.7773127726653497  0.6253322722613552
  0.9999639067107100  0.7776462505359729  0.9587832574689447
  0.1998936885947999  0.1111432718828318  0.2925115904662374
  0.1996538085415229  0.1099586943473650  0.6258909356183818
  0.1998939673757235  0.1108591081509257  0.9594056989923659
  0.2002274598040653  0.4441941838335222  0.2925349845415142
  0.2007092134589422  0.4433976599134792  0.6262093699997801
  0.1997349174410167  0.4441583081046269  0.9594084307779122
  0.1994541634606276  0.7784699008885253  0.2916004775643906
  0.1996666160888366  0.7776070722190668  0.6259493048457982
  0.1997671447402372  0.7777587240684397  0.9579290007701834
  0.4000000018848269  0.1110482680637028  0.2927628802350227
  0.3999999989543355  0.1100565578060978  0.6260847313640908
  0.3999999982429543  0.1107659168859540  0.9593109660647535
  0.4000000141532851  0.4465251926859359  0.2946332414959659
  0.4000000032086817  0.4360499964416468  0.6358479313151013
  0.4000000136967898  0.4441122636383629  0.9587992889267405
  0.4000000142595752  0.7778205428791698  0.2919059509354253
  0.4000000045956256  0.7775162891878403  0.6245323486862535
  0.4000000075717836  0.7778860281835955  0.9573266890500697
  0.6001063104718142  0.1111432718011052  0.2925115937545723
  0.6003462014314319  0.1099586945944775  0.6258909403003540
  0.6001060633128915  0.1108591123020798  0.9594057057201612
  0.5997725499675358  0.4441941825963252  0.2925349794196876
  0.5992908183368404  0.4433976564717879  0.6262093615669025
  0.6002651076105857  0.4441583072291814  0.9594084310946224
  0.6005458792206982  0.7784699103653606  0.2916004782470090
  0.6003333976104671  0.7776070784981329  0.6259493073348721
  0.6002328736570757  0.7777587290659994  0.9579290047791224
  0.8001290517370714  0.1114136703963637  0.2923320417593254
  0.8000322660672646  0.1109946707227168  0.6258283739573491
  0.8000212608820380  0.1110747548565980  0.9592444864462478
  0.7998925813313236  0.4444558546887457  0.2923552551616389
  0.7998151289236091  0.4441787414613680  0.6255141627154940
  0.7999724500366487  0.4443574785124835  0.9590331755014536
  0.8001178247700079  0.7778648630821139  0.2919009885931947
  0.8000178964604558  0.7773127758709633  0.6253322709913525
  0.8000361176867454  0.7776462513054339  0.9587832565422477
  0.3999999997500652  0.6080196854419064  0.4313058032947237
  0.4000000061776348  0.5239624973041602  0.5094824548529218
 
  0.00000000E+00  0.00000000E+00  0.00000000E+00
  0.00000000E+00  0.00000000E+00  0.00000000E+00
  0.00000000E+00  0.00000000E+00  0.00000000E+00
  0.00000000E+00  0.00000000E+00  0.00000000E+00
  0.00000000E+00  0.00000000E+00  0.00000000E+00
  0.00000000E+00  0.00000000E+00  0.00000000E+00
  0.00000000E+00  0.00000000E+00  0.00000000E+00
  0.00000000E+00  0.00000000E+00  0.00000000E+00
  0.00000000E+00  0.00000000E+00  0.00000000E+00
  0.00000000E+00  0.00000000E+00  0.00000000E+00
  0.00000000E+00  0.00000000E+00  0.00000000E+00
  0.00000000E+00  0.00000000E+00  0.00000000E+00
  0.00000000E+00  0.00000000E+00  0.00000000E+00
  0.00000000E+00  0.00000000E+00  0.00000000E+00
  0.00000000E+00  0.00000000E+00  0.00000000E+00
  0.00000000E+00  0.00000000E+00  0.00000000E+00
  0.00000000E+00  0.00000000E+00  0.00000000E+00
  0.00000000E+00  0.00000000E+00  0.00000000E+00
  0.00000000E+00  0.00000000E+00  0.00000000E+00
  0.00000000E+00  0.00000000E+00  0.00000000E+00
  0.00000000E+00  0.00000000E+00  0.00000000E+00
  0.00000000E+00  0.00000000E+00  0.00000000E+00
  0.00000000E+00  0.00000000E+00  0.00000000E+00
  0.00000000E+00  0.00000000E+00  0.00000000E+00
  0.00000000E+00  0.00000000E+00  0.00000000E+00
  0.00000000E+00  0.00000000E+00  0.00000000E+00
  0.00000000E+00  0.00000000E+00  0.00000000E+00
  0.00000000E+00  0.00000000E+00  0.00000000E+00
  0.00000000E+00  0.00000000E+00  0.00000000E+00
  0.00000000E+00  0.00000000E+00  0.00000000E+00
  0.00000000E+00  0.00000000E+00  0.00000000E+00
  0.00000000E+00  0.00000000E+00  0.00000000E+00
  0.00000000E+00  0.00000000E+00  0.00000000E+00
  0.00000000E+00  0.00000000E+00  0.00000000E+00
  0.00000000E+00  0.00000000E+00  0.00000000E+00
  0.00000000E+00  0.00000000E+00  0.00000000E+00
  0.00000000E+00  0.00000000E+00  0.00000000E+00
  0.00000000E+00  0.00000000E+00  0.00000000E+00
  0.00000000E+00  0.00000000E+00  0.00000000E+00
  0.00000000E+00  0.00000000E+00  0.00000000E+00
  0.00000000E+00  0.00000000E+00  0.00000000E+00
  0.00000000E+00  0.00000000E+00  0.00000000E+00
  0.00000000E+00  0.00000000E+00  0.00000000E+00
  0.00000000E+00  0.00000000E+00  0.00000000E+00
  0.00000000E+00  0.00000000E+00  0.00000000E+00
  0.00000000E+00  0.00000000E+00  0.00000000E+00
  0.00000000E+00  0.00000000E+00  0.00000000E+00
  0.00000000E+00  0.00000000E+00  0.00000000E+00
  0.00000000E+00  0.00000000E+00  0.00000000E+00
  0.00000000E+00  0.00000000E+00  0.00000000E+00
  0.00000000E+00  0.00000000E+00  0.00000000E+00
  0.00000000E+00  0.00000000E+00  0.00000000E+00
  0.00000000E+00  0.00000000E+00  0.00000000E+00
  0.00000000E+00  0.00000000E+00  0.00000000E+00
  0.00000000E+00  0.00000000E+00  0.00000000E+00
  0.00000000E+00  0.00000000E+00  0.00000000E+00
  0.00000000E+00  0.00000000E+00  0.00000000E+00
  0.00000000E+00  0.00000000E+00  0.00000000E+00
  0.00000000E+00  0.00000000E+00  0.00000000E+00
  0.00000000E+00  0.00000000E+00  0.00000000E+00
  0.00000000E+00  0.00000000E+00  0.00000000E+00
  0.00000000E+00  0.00000000E+00  0.00000000E+00
  0.00000000E+00  0.00000000E+00  0.00000000E+00
  0.00000000E+00  0.00000000E+00  0.00000000E+00
  0.00000000E+00  0.00000000E+00  0.00000000E+00
  0.00000000E+00  0.00000000E+00  0.00000000E+00
  0.00000000E+00  0.00000000E+00  0.00000000E+00
  0.00000000E+00  0.00000000E+00  0.00000000E+00
  0.00000000E+00  0.00000000E+00  0.00000000E+00
  0.00000000E+00  0.00000000E+00  0.00000000E+00
  0.00000000E+00  0.00000000E+00  0.00000000E+00
  0.00000000E+00  0.00000000E+00  0.00000000E+00
  0.00000000E+00  0.00000000E+00  0.00000000E+00
  0.00000000E+00  0.00000000E+00  0.00000000E+00
  0.00000000E+00  0.00000000E+00  0.00000000E+00
  0.00000000E+00  0.00000000E+00  0.00000000E+00
  0.00000000E+00  0.00000000E+00  0.00000000E+00
  0.00000000E+00  0.00000000E+00  0.00000000E+00
  0.00000000E+00  0.00000000E+00  0.00000000E+00
  0.00000000E+00  0.00000000E+00  0.00000000E+00
  0.00000000E+00  0.00000000E+00  0.00000000E+00
  0.00000000E+00  0.00000000E+00  0.00000000E+00
  0.00000000E+00  0.00000000E+00  0.00000000E+00
  0.00000000E+00  0.00000000E+00  0.00000000E+00
  0.00000000E+00  0.00000000E+00  0.00000000E+00
  0.00000000E+00  0.00000000E+00  0.00000000E+00
  0.00000000E+00  0.00000000E+00  0.00000000E+00
  0.00000000E+00  0.00000000E+00  0.00000000E+00
  0.00000000E+00  0.00000000E+00  0.00000000E+00
  0.00000000E+00  0.00000000E+00  0.00000000E+00
  0.00000000E+00  0.00000000E+00  0.00000000E+00
  0.00000000E+00  0.00000000E+00  0.00000000E+00
  0.00000000E+00  0.00000000E+00  0.00000000E+00
  0.00000000E+00  0.00000000E+00  0.00000000E+00
  0.00000000E+00  0.00000000E+00  0.00000000E+00
  0.00000000E+00  0.00000000E+00  0.00000000E+00
  0.00000000E+00  0.00000000E+00  0.00000000E+00
  0.00000000E+00  0.00000000E+00  0.00000000E+00
  0.00000000E+00  0.00000000E+00  0.00000000E+00
  0.00000000E+00  0.00000000E+00  0.00000000E+00
  0.00000000E+00  0.00000000E+00  0.00000000E+00
  0.00000000E+00  0.00000000E+00  0.00000000E+00
  0.00000000E+00  0.00000000E+00  0.00000000E+00
  0.00000000E+00  0.00000000E+00  0.00000000E+00
  0.00000000E+00  0.00000000E+00  0.00000000E+00
  0.00000000E+00  0.00000000E+00  0.00000000E+00
  0.00000000E+00  0.00000000E+00  0.00000000E+00
  0.00000000E+00  0.00000000E+00  0.00000000E+00
  0.00000000E+00  0.00000000E+00  0.00000000E+00
  0.00000000E+00  0.00000000E+00  0.00000000E+00
  0.00000000E+00  0.00000000E+00  0.00000000E+00
  0.00000000E+00  0.00000000E+00  0.00000000E+00
  0.00000000E+00  0.00000000E+00  0.00000000E+00
  0.00000000E+00  0.00000000E+00  0.00000000E+00
  0.00000000E+00  0.00000000E+00  0.00000000E+00
  0.00000000E+00  0.00000000E+00  0.00000000E+00
  0.00000000E+00  0.00000000E+00  0.00000000E+00
  0.00000000E+00  0.00000000E+00  0.00000000E+00
  0.00000000E+00  0.00000000E+00  0.00000000E+00
  0.00000000E+00  0.00000000E+00  0.00000000E+00
  0.00000000E+00  0.00000000E+00  0.00000000E+00
  0.00000000E+00  0.00000000E+00  0.00000000E+00
  0.00000000E+00  0.00000000E+00  0.00000000E+00
  0.00000000E+00  0.00000000E+00  0.00000000E+00
  0.00000000E+00  0.00000000E+00  0.00000000E+00
  0.00000000E+00  0.00000000E+00  0.00000000E+00
  0.00000000E+00  0.00000000E+00  0.00000000E+00
  0.00000000E+00  0.00000000E+00  0.00000000E+00
  0.00000000E+00  0.00000000E+00  0.00000000E+00
  0.00000000E+00  0.00000000E+00  0.00000000E+00
  0.00000000E+00  0.00000000E+00  0.00000000E+00
  0.00000000E+00  0.00000000E+00  0.00000000E+00
  0.00000000E+00  0.00000000E+00  0.00000000E+00
  0.00000000E+00  0.00000000E+00  0.00000000E+00
  0.00000000E+00  0.00000000E+00  0.00000000E+00
  0.00000000E+00  0.00000000E+00  0.00000000E+00
  0.00000000E+00  0.00000000E+00  0.00000000E+00
  0.00000000E+00  0.00000000E+00  0.00000000E+00
  0.00000000E+00  0.00000000E+00  0.00000000E+00
  0.00000000E+00  0.00000000E+00  0.00000000E+00
  0.00000000E+00  0.00000000E+00  0.00000000E+00
  0.00000000E+00  0.00000000E+00  0.00000000E+00
  0.00000000E+00  0.00000000E+00  0.00000000E+00
  0.00000000E+00  0.00000000E+00  0.00000000E+00
  0.00000000E+00  0.00000000E+00  0.00000000E+00
  0.00000000E+00  0.00000000E+00  0.00000000E+00
  0.00000000E+00  0.00000000E+00  0.00000000E+00
  0.00000000E+00  0.00000000E+00  0.00000000E+00
  0.00000000E+00  0.00000000E+00  0.00000000E+00
  0.00000000E+00  0.00000000E+00  0.00000000E+00
  0.00000000E+00  0.00000000E+00  0.00000000E+00
  0.00000000E+00  0.00000000E+00  0.00000000E+00
  0.00000000E+00  0.00000000E+00  0.00000000E+00
  0.00000000E+00  0.00000000E+00  0.00000000E+00
  0.00000000E+00  0.00000000E+00  0.00000000E+00
  0.00000000E+00  0.00000000E+00  0.00000000E+00