GaN_ONH                                 
    1.000000000000000     
    15.8909244537000003    0.0000000000000000    0.0000000000000000
     0.0000000000000000   16.5143318175999987    0.0000000000000000
     0.0000000000000000    0.0000000000000000   15.4982528686999999
   Ga   N    O    H 
   180   179     1     1
Direct
  0.0998029256537004  0.0557811262639649  0.3332880792806931
  0.0995357974855189  0.0550164983770741  0.6669622149523843
  0.0998748900373960  0.0554000404719884  0.0001434172793074
  0.1002431436897794  0.3890309172547614  0.3336440737759628
  0.0999230987036996  0.3885801985554980  0.6667718620953168
  0.0998269785938715  0.3887501034831587  0.0003293484339221
  0.1001172762544039  0.7225181181689361  0.3328159146012873
  0.0999424318009875  0.7217353069138216  0.6662747703535258
  0.1000572060707478  0.7221185113970577  0.9993368478880151
  0.2998873187286683  0.0554871470045437  0.3335103791958141
  0.2998006934704284  0.0548578117942401  0.6669200961864170
  0.2999383006241211  0.0552358806173395  0.0002623659172953
  0.3002877084827426  0.3892161740131443  0.3347930150429187
  0.2979200692326355  0.3850896533007173  0.6707406925608629
  0.3000371152286140  0.3886970278422879  0.0001991048982138
  0.2997528567212425  0.7228169466381350  0.3335698146177731
  0.3003027862695002  0.7215518542241756  0.6652920953208445
  0.2999826887050589  0.7224613076428058  0.9983528972719231
  0.5001132142005774  0.0554869283978084  0.3335107317259721
  0.5001998840445577  0.0548576346432363  0.6669205222137401
  0.5000621837012859  0.0552356054171481  0.0002625170336487
  0.4997113582128925  0.3892157133845796  0.3347926679675860
  0.5020792728956378  0.3850899337090027  0.6707411336494891
  0.4999620997644680  0.3886967729331381  0.0001989760906811
  0.5002471510452718  0.7228175107478229  0.3335703139391663
  0.4996972959752378  0.7215524000695380  0.6652919953341589
  0.5000174443653226  0.7224616989419740  0.9983528986633925
  0.7001968329212006  0.0557807563032199  0.3332887083268903
  0.7004639742595541  0.0550162117303202  0.6669630025273648
  0.7001249104389953  0.0553996716851413  0.0001436529838057
  0.6997572025864849  0.3890303720862183  0.3336436284804106
  0.7000770818168955  0.3885798087663668  0.6667717657818411
  0.7001732784656650  0.3887497074461460  0.0003293373941743
  0.6998826894023507  0.7225190680812186  0.3328159403456437
  0.7000575127520422  0.7217360582400772  0.6662749271244447
  0.6999426990934554  0.7221192866854803  0.9993367223365407
  0.8999997070025402  0.0556512012145303  0.3334460331119130
  0.8999996599159752  0.0552399089599598  0.6668413079972224
  0.8999997108694133  0.0553992955064711  0.0001443205000740
  0.9000005946378633  0.3890069192984240  0.3334549099777838
  0.9000004278214997  0.3887998574007582  0.6667504397074548
  0.9000005354433653  0.3888496781291971  0.0001644381628350
  0.8999999868839468  0.7221791738523006  0.3329578141530234
  0.8999999522837323  0.7217450529462287  0.6664736110646491
  0.8999999757170765  0.7220168946254331  0.9997528899809415
  0.9999775104718006  0.2224143577915830  0.3335911920055581
  0.9998652455753272  0.2220522508891820  0.6669590979054076
  0.9999627791089207  0.2221370386408359  0.0002757376080337
  0.0000225221463371  0.5555980045553467  0.3331415649649744
  0.0003042157911557  0.5552753100967769  0.6661952577823054
  0.0000097101073933  0.5554794966913850  0.9996934183976757
  0.9999517447235651  0.8889264642910114  0.3331307507865444
  0.9998742646277902  0.8883755531199815  0.6666207688373791
  0.9999608477687040  0.8887021186075974  0.9998782620439306
  0.2000209411334443  0.2222891967318984  0.3335086842044430
  0.1991745156780623  0.2207093962158116  0.6674257305063875
  0.1997505722525621  0.2219016020375308  0.0007539944437874
  0.1999274008666738  0.5556594019011376  0.3316403794571249
  0.2009007023341296  0.5549197688489281  0.6655988186527400
  0.1996410386881959  0.5554310953157664  0.9989609799539731
  0.1996159035034497  0.8892857562130571  0.3330222121397990
  0.1997707328168856  0.8887568860207847  0.6667368686226641
  0.1999054549903450  0.8887447635347082  0.9995513049485247
  0.3999999148491644  0.2220339245909240  0.3340546584185563
  0.3999999525571903  0.2209285299283915  0.6677085188447087
  0.3999998713388523  0.2216248648096655  0.0011373836028393
  0.3999994278139276  0.5605831908111363  0.3216188276307562
  0.3999995211495867  0.5510873577341197  0.6640689240945808
  0.3999997363523864  0.5552291677244072  0.9992918874818748
  0.4000004193691701  0.8890051498854337  0.3329554714359741
  0.4000003986122005  0.8884723855051607  0.6660539177038091
  0.4000004538318057  0.8886355343123410  0.9996972093086878
  0.5999788757596203  0.2222883720687319  0.3335089123260487
  0.6008254120221067  0.2207087028467916  0.6674265581330303
  0.6002493314694384  0.2219008132689844  0.0007541924881883
  0.6000723303794454  0.5556598705500874  0.3316401641932952
  0.5990991997932396  0.5549200561918177  0.6655979791487953
  0.6003586649281610  0.5554315650056769  0.9989612040586601
  0.6003843283508280  0.8892862240596875  0.3330230470685640
  0.6002295074337173  0.8887573263950517  0.6667374778893796
  0.6000947330624045  0.8887451311842031  0.9995515043582996
  0.8000227520816494  0.2224138480230463  0.3335913056004792
  0.8001348835028566  0.2220517909865344  0.6669592414458144
  0.8000374511836124  0.2221365467113316  0.0002757613107126
  0.7999783333391168  0.5555982587058658  0.3331413965627302
  0.7996963759450768  0.5552755067226794  0.6661948916030196
  0.7999908742877018  0.5554797712209826  0.9996932729879635
  0.8000476203106517  0.8889267688453600  0.3331311004000280
  0.8001250899624005  0.8883758143881877  0.6666211349204147
  0.8000385287162588  0.8887023806329670  0.9998783809992424
  0.0999318622024364  0.2778394304215210  0.1670746853578475
  0.1000319683396897  0.2779683077128002  0.5002600138520831
  0.0998854338155062  0.2775333475825342  0.8337344913415002
  0.0997549611919228  0.6112614510178879  0.1661337730377292
  0.1008797817931656  0.6111600691745670  0.4991490188776450
  0.1001953887490351  0.6108485421996648  0.8325203167698436
  0.0998861707435633  0.9445796222763250  0.1664481970444206
  0.0988739113186535  0.9453390987263592  0.5000224831719566
  0.0998540887614122  0.9441179164752774  0.8333382126159583
  0.3000118808566273  0.2778849013329279  0.1673352796716674
  0.2989834945383104  0.2749649498140175  0.5009884290157758
  0.2996592860699435  0.2764351160795589  0.8351076747263543
  0.2984689832063043  0.6123294243330166  0.1630769644209217
  0.2983360987913262  0.6169238833277980  0.4974903499825450
  0.3004427960189121  0.6105304870675067  0.8322503429479382
  0.2999035962217093  0.9444660481811544  0.1664919748827370
  0.2995983845329630  0.9447334594032951  0.4997903806183208
  0.3000060194293502  0.9440916813528620  0.8332395641417157
  0.4999879621443440  0.2778843959655422  0.1673352083315290
  0.5010165481419824  0.2749645080221221  0.5009892515084536
  0.5003406674596983  0.2764347129716455  0.8351080114448333
  0.5015302939048240  0.6123299545476414  0.1630775664563488
  0.5016630644805847  0.6169245642074397  0.4974906858324286
  0.4995566800157902  0.6105308243069082  0.8322497640599759
  0.5000970002965992  0.9444661780259606  0.1664922583060658
  0.5004022351933908  0.9447335821745593  0.4997909304025769
  0.4999946277739390  0.9440917831513395  0.8332397180963306
  0.7000681799327249  0.2778385773847154  0.1670747761508823
  0.6999679323351385  0.2779674477258076  0.5002601728910920
  0.7001145632709856  0.2775326567680005  0.8337346870059357
  0.7002452611652026  0.6112620439020177  0.1661337489904635
  0.6991205781124761  0.6111607447350872  0.4991484168604223
  0.6998047478564496  0.6108490606719196  0.8325199210886685
  0.7001135651233150  0.9445797967625298  0.1664485499968480
  0.7011258738672880  0.9453392835789302  0.5000237116150378
  0.7001456246353959  0.9441181039535073  0.8333385413747180
  0.9000001057744983  0.2779790636330052  0.1668978365603642
  0.9000000616661435  0.2783115543296558  0.5002535085168679
  0.9000000542181255  0.2777911420910005  0.8335882229699144
  0.9000005215828832  0.6111955942641299  0.1664790754443635
  0.9000005185663551  0.6110313257766919  0.4997227505272038
  0.9000003924491694  0.6109290513306802  0.8329613687939936
  0.8999996722551905  0.9445453455888121  0.1666480637427643
  0.8999995948146812  0.9446414902473574  0.4999805405564449
  0.8999996341300501  0.9442685435481613  0.8333497558830294
  0.9999441713534547  0.1112756904304593  0.1668189449437587
  0.9997052350116302  0.1117018131481853  0.5002055981384139
  0.9999192888041296  0.1109958214985205  0.8335762935780274
  0.0000508393228846  0.4445833776694222  0.1667602016515515
  0.0003892540859572  0.4445563415654571  0.4999461592256965
  0.9999532297094157  0.4443716826880880  0.8333036589199774
  0.0000436625492015  0.7778438235012747  0.1663405033753461
  0.9995956585373675  0.7776889192134683  0.4997077930201557
  0.9999855347005405  0.7775087657572308  0.8331113071166855
  0.1999600766601959  0.1110676746501158  0.1668919318350049
  0.1993284641017125  0.1104037373702249  0.5002068378876992
  0.1997615549161170  0.1104726693657844  0.8338110091373248
  0.2000289672382168  0.4444600235737872  0.1665591893625506
  0.2015387924263063  0.4443032410721068  0.5005948654400280
  0.1993582702434780  0.4442182457061305  0.8340110391082650
  0.1998551227458096  0.7781557988396625  0.1660890515172188
  0.1973300231964094  0.7809522392955867  0.5003810520827446
  0.2000130877924216  0.7773971379315946  0.8323188153989340
  0.4000003657367617  0.1110323255178547  0.1671805297486220
  0.4000004125729397  0.1102857993010158  0.5004666620626593
  0.4000003923941050  0.1105310912621744  0.8338329531961733
  0.3999995055414123  0.4449019665877786  0.1669396341896908
  0.3999996619783184  0.4324550317816001  0.5099368911656101
  0.3999996001132333  0.4435279102687429  0.8328776828029384
  0.3999999894627694  0.7778951542768943  0.1661711209119343
  0.3999998838812083  0.7791053494543880  0.4984922388648692
  0.4000000842166719  0.7775235202019797  0.8319931597699909
  0.6000400794780353  0.1110670770583704  0.1668922034602781
  0.6006717728610722  0.1104032440061868  0.5002077967650156
  0.6002386418791764  0.1104720675748325  0.8338115133070213
  0.5999706412274400  0.4444598502667874  0.1665588789879756
  0.5984608493967521  0.4443028429537104  0.5005940496284934
  0.6006414626959548  0.4442181253854808  0.8340114566937964
  0.6001448010074145  0.7781565831438512  0.1660892274912660
  0.6026700930790757  0.7809529586818967  0.5003819052410948
  0.5999868198671591  0.7773978715002120  0.8323187904832268
  0.8000553178952742  0.1112753240118917  0.1668191376583102
  0.8002941341932865  0.1117014222475389  0.5002060934591640
  0.8000801331040546  0.1109954761307625  0.8335765071703154
  0.7999500401159405  0.4445832315060576  0.1667600197106138
  0.7996115325003084  0.4445561262997635  0.4999459210414255
  0.8000474500124022  0.4443715472739010  0.8333035445145281
  0.7999564488653672  0.7778442982131309  0.1663404504438331
  0.8004044002857805  0.7776894428912003  0.4997080885701503
  0.8000144759689406  0.7775092045147729  0.8331113365910141
  0.0998590636217776  0.0557656237220991  0.1257260922926647
  0.0990814403779288  0.0560395772212876  0.4588794496241122
  0.0997155060453124  0.0552452654263715  0.7925663470757609
  0.0999366782942826  0.3888632162619483  0.1259277295599538
  0.1007294727846704  0.3893358115293499  0.4593500240241112
  0.0996954420253907  0.3885810129705418  0.7924674962540175
  0.0999550511027657  0.7223255994196168  0.1250018724582514
  0.0994503516192310  0.7224711306481394  0.4585647729249343
  0.0997965286580827  0.7219430607924515  0.7918386717529106
  0.3000451031139026  0.0556682417571970  0.1258403507734626
  0.2997337666903059  0.0557676304367140  0.4591211912459446
  0.2999417945188033  0.0552563097265681  0.7925816809157158
  0.3003342552073621  0.3890640820614897  0.1261733834257164
  0.2996836823666040  0.3857179627422697  0.4602330779540403
  0.2988035392392598  0.3874075139719899  0.7955932270621107
  0.2999222193770202  0.7233951691520007  0.1237175893888628
  0.2961896040204394  0.7287728352106024  0.4590894126368274
  0.3000548867283004  0.7216825179421533  0.7911086015196624
  0.4999546628565226  0.0556683006560658  0.1258404843839565
  0.5002660661640839  0.0557676791772200  0.4591214699987492
  0.5000579161441818  0.0552564190467621  0.7925819395990077
  0.4996661086508447  0.3890642049674109  0.1261734164692460
  0.5003166797623235  0.3857180144965697  0.4602327962341646
  0.5011968659435841  0.3874077519317728  0.7955935666625054
  0.5000779098169613  0.7233949089607294  0.1237176899150645
  0.5038104911503433  0.7287726907499333  0.4590897198930316
  0.4999451215676547  0.7216823447554046  0.7911084797441916
  0.7001410572024017  0.0557657354527910  0.1257263167624681
  0.7009185988412465  0.0560396356691021  0.4588799357885199
  0.7002846132203167  0.0552454261048293  0.7925668861451376
  0.7000631907350839  0.3888634210823702  0.1259279047865151
  0.6992704277057219  0.3893359886192389  0.4593496417739267
  0.7003043625590359  0.3885812759055006  0.7924675726771336
  0.7000449004436768  0.7223252200288978  0.1250019454417600
  0.7005495539695659  0.7224707654596056  0.4585647268183128
  0.7002034804238231  0.7219426595653773  0.7918387422442050
  0.9000001298332306  0.0556651358791840  0.1257456163637759
  0.9000001187796470  0.0558361338334863  0.4590997132467667
  0.9000001809242202  0.0553790865332196  0.7924777813433588
  0.8999997666144437  0.3890317332990196  0.1258089535316839
  0.8999997895614412  0.3893500061206975  0.4590981232917140
  0.8999997817473465  0.3888193147654867  0.7923716533362374
  0.8999999421141347  0.7222574302142226  0.1253801926632973
  0.8999999196492535  0.7220036393516945  0.4585764601097273
  0.8999999864964374  0.7219964507356689  0.7920746846467770
  0.9999079448015215  0.2223746262008524  0.1258935464415329
  0.9997854554489891  0.2227805652186164  0.4592139301696025
  0.9998425782122182  0.2220819586980045  0.7926035501891793
  0.9998081523822414  0.5555775309135095  0.1253420625708783
  0.0003975238142716  0.5556514604148531  0.4588225948098049
  0.9999841662083488  0.5553803152054779  0.7918676612171535
  0.9998741599980410  0.8889783692462210  0.1254620367512388
  0.9996018864899747  0.8888741485562368  0.4588092047425432
  0.9998546493470776  0.8886132304088326  0.7922485083309071
  0.2000031460237489  0.2223216151884276  0.1263316572980546
  0.1990768710917196  0.2211688189488835  0.4590741809830108
  0.1996857866180128  0.2215076427898257  0.7930502482361460
  0.1991719585229366  0.5552537003045953  0.1242663730326955
  0.2024202664727350  0.5555317617133421  0.4576398445219129
  0.2003048020154812  0.5551375952322030  0.7914875667159873
  0.1998626088260664  0.8892527470802196  0.1251472952344818
  0.1986669303228089  0.8912597864783213  0.4586054217955660
  0.1999441769363017  0.8888066984402381  0.7922610757744423
  0.4000000070226696  0.2221897397585469  0.1265947933284162
  0.4000001553596351  0.2212201949767258  0.4597655481420643
  0.4000000186912603  0.2217346813505612  0.7933812078483876
  0.4000003391046530  0.5560986286912050  0.1253258564504993
  0.4000001513555305  0.5545452837558125  0.7908640999564281
  0.3999998823952798  0.8890849918088508  0.1253396273966601
  0.3999998835789049  0.8904251434968645  0.4585250269009303
  0.3999998126713291  0.8887802385713457  0.7917276020316190
  0.5999968978584782  0.2223219506654781  0.1263318704561811
  0.6009230288513425  0.2211691984181015  0.4590744249579001
  0.6003142359963063  0.2215080119056521  0.7930508428215173
  0.6008281264074821  0.5552536476328437  0.1242667703660254
  0.5975798072498084  0.5555316998741672  0.4576396916138924
  0.5996954050713955  0.5551373192359174  0.7914870672911467
  0.6001373330598002  0.8892525177741728  0.1251474871171851
  0.6013330645045785  0.8912595126420062  0.4586060197423669
  0.6000557232928241  0.8888065004066176  0.7922614273585793
  0.8000920044690160  0.2223748215475153  0.1258936233799599
  0.8002144853503531  0.2227807464174814  0.4592140182832214
  0.8001573970195384  0.2220821960065343  0.7926037045110180
  0.8001914166128088  0.5555774553886605  0.1253420581675866
  0.7996021589840253  0.5556513433765691  0.4588224118181191
  0.8000154804681476  0.5553802115506641  0.7918674606471576
  0.8001260418337216  0.8889782542708135  0.1254621362596341
  0.8003982425328929  0.8888740165717887  0.4588094344425906
  0.8001456442778420  0.8886130929792733  0.7922487432907900
  0.0999966005095505  0.2778898482853800  0.2926833421425272
  0.0999251027902936  0.2773286165317881  0.6259701672111989
  0.0999602505643186  0.2776032240502136  0.9593834758118216
  0.0995775395966290  0.6112439902158315  0.2918468082236431
  0.1006032260843690  0.6105260714119621  0.6249171152898000
  0.0997881968358986  0.6110218342096063  0.9581506090505191
  0.0996261016161075  0.9448151902099333  0.2919946096898167
  0.0995733260159606  0.9441058837124072  0.6256847366695462
  0.0998220955597204  0.9443505460604439  0.9589157473728069
  0.3003438217706321  0.2781794240594547  0.2929990993423076
  0.2993384598292485  0.2751949722654165  0.6266316397416566
  0.3000414433644980  0.2771280832591128  0.9604723305521065
  0.2969899521826385  0.6129093702832112  0.2874999369836774
  0.3014490805385475  0.6100323244282800  0.6228135792319622
  0.3000552778088341  0.6109001444641908  0.9581644782078277
  0.2999188903285814  0.9445387735556980  0.2920948848119324
  0.2998628818467449  0.9439558988971256  0.6254849087533872
  0.3000525823119727  0.9442537943709548  0.9588443535012555
  0.4996563804575931  0.2781795991983427  0.2929989939423516
  0.5006617330149241  0.2751954599848649  0.6266322020215777
  0.4999586754419462  0.2771282755943280  0.9604726182898720
  0.5030103929803850  0.6129092715765052  0.2875004614976235
  0.4985510745785072  0.6100321337772868  0.6228135035587350
  0.4999451072653739  0.6108999781026576  0.9581642280562404
  0.5000809428810468  0.9445387113039598  0.2920951147858366
  0.5001367709340753  0.9439558620558899  0.6254852210290487
  0.4999471266930263  0.9442537515215489  0.9588444736271493
  0.7000033167185962  0.2778901313246449  0.2926833773592693
  0.7000747745024983  0.2773289774147772  0.6259702955418229
  0.7000397225163734  0.2776036129030810  0.9593837115327255
  0.7004222824523630  0.6112437505496824  0.2918469554938282
  0.6993967336959777  0.6105258657201009  0.6249166038520302
  0.7002116331339738  0.6110215104114121  0.9581505252184389
  0.7003739449596735  0.9448151215499669  0.2919948971729327
  0.7004267981664606  0.9441058696080625  0.6256854379783084
  0.7001780273614749  0.9443504809014069  0.9589160458383772
  0.8999998875977268  0.2779462984316290  0.2924939280345546
  0.8999999261353226  0.2777125890025234  0.6258847237146425
  0.8999999068683355  0.2777214835663483  0.9592290949870004
  0.8999998168857785  0.6110142309936604  0.2921429494827895
  0.8999998507208821  0.6106671536145820  0.6253552921827158
  0.8999997760385682  0.6109506517476708  0.9586138670592049
  0.9000001201035757  0.9446244386435784  0.2922452809886067
  0.9000001965366906  0.9441729078451681  0.6256675118963052
  0.9000001819656998  0.9443516337588862  0.9589556480101680
  0.9998215064239754  0.1113948906282559  0.2924072498481177
  0.9997927298175520  0.1109812987180370  0.6258675300039387
  0.9998905387310213  0.1110482316376505  0.9591906030487656
  0.0000762930781047  0.4444121680347028  0.2924274189001066
  0.0000103910818168  0.4441207862405485  0.6255672577826599
  0.9999230232381723  0.4443065235204972  0.9589788558856764
  0.9998387289954079  0.7778614593658634  0.2919552543267062
  0.9998343664933134  0.7773171266181919  0.6253928888746406
  0.9998795599329704  0.7776468900070153  0.9587136485182879
  0.2000231354278517  0.1111775092237707  0.2924601964430901
  0.1995953711085514  0.1099675890214453  0.6258754393608915
  0.1999670159217497  0.1108344942533747  0.9594110910753992
  0.2004228595960617  0.4441914848797697  0.2923722123261300
  0.2006560602287359  0.4433713256532496  0.6262319226768864
  0.1998179332385963  0.4441331643123992  0.9594502312114234
  0.1996545962352141  0.7784559868566392  0.2915222428352596
  0.1996311625972332  0.7776635133347451  0.6259349353584769
  0.1998337723924167  0.7777583529523253  0.9579506054937339
  0.3999999247834580  0.1110337266874824  0.2927449044223295
  0.3999998851026854  0.1100348362374493  0.6261196059881882
  0.3999998574519301  0.1107376035414556  0.9594447029854445
  0.4000002599030859  0.4465722951627536  0.2944557744609834
  0.4000002747100853  0.4359519191042671  0.6359894157753336
  0.4000001986269636  0.4440882797887561  0.9589579995499242
  0.4000000439855436  0.7777893235226564  0.2918534669012171
  0.3999999023169091  0.7775648928735670  0.6245753072470897
  0.3999999889313384  0.7778419441940877  0.9575609314173089
  0.5999768283273930  0.1111777470723436  0.2924603828235485
  0.6004045565978107  0.1099679780954275  0.6258760351148004
  0.6000329321253415  0.1108347722835897  0.9594114780067272
  0.5995772774151339  0.4441915812310807  0.2923721860231897
  0.5993441146147884  0.4433713742584169  0.6262312552790208
  0.6001822664215677  0.4441333543604160  0.9594506494283044
  0.6003453772578592  0.7784557095021089  0.2915224710288684
  0.6003688474897638  0.7776631432182401  0.6259353352247893
  0.6001662033776153  0.7777579993494778  0.9579507092107558
  0.8001786037362877  0.1113950258267382  0.2924073801665469
  0.8002074819932520  0.1109814841977787  0.6258677979978591
  0.8001096712337893  0.1110484112808827  0.9591907653994708
  0.7999233233588259  0.4444122250910825  0.2924272912479114
  0.7999892041415386  0.4441208090565274  0.6255670399206171
  0.8000765768742649  0.4443065918204256  0.9589788880872888
  0.8001612625874487  0.7778612987924249  0.2919552349171966
  0.8001657067955230  0.7773169250154559  0.6253930458875741
  0.8001204972585770  0.7776466855339270  0.9587137360802930
  0.4000002615554411  0.6083563811196918  0.4308606135168377
  0.4000001033724993  0.5243356891692214  0.5094928349461402
 
  0.00000000E+00  0.00000000E+00  0.00000000E+00
  0.00000000E+00  0.00000000E+00  0.00000000E+00
  0.00000000E+00  0.00000000E+00  0.00000000E+00
  0.00000000E+00  0.00000000E+00  0.00000000E+00
  0.00000000E+00  0.00000000E+00  0.00000000E+00
  0.00000000E+00  0.00000000E+00  0.00000000E+00
  0.00000000E+00  0.00000000E+00  0.00000000E+00
  0.00000000E+00  0.00000000E+00  0.00000000E+00
  0.00000000E+00  0.00000000E+00  0.00000000E+00
  0.00000000E+00  0.00000000E+00  0.00000000E+00
  0.00000000E+00  0.00000000E+00  0.00000000E+00
  0.00000000E+00  0.00000000E+00  0.00000000E+00
  0.00000000E+00  0.00000000E+00  0.00000000E+00
  0.00000000E+00  0.00000000E+00  0.00000000E+00
  0.00000000E+00  0.00000000E+00  0.00000000E+00
  0.00000000E+00  0.00000000E+00  0.00000000E+00
  0.00000000E+00  0.00000000E+00  0.00000000E+00
  0.00000000E+00  0.00000000E+00  0.00000000E+00
  0.00000000E+00  0.00000000E+00  0.00000000E+00
  0.00000000E+00  0.00000000E+00  0.00000000E+00
  0.00000000E+00  0.00000000E+00  0.00000000E+00
  0.00000000E+00  0.00000000E+00  0.00000000E+00
  0.00000000E+00  0.00000000E+00  0.00000000E+00
  0.00000000E+00  0.00000000E+00  0.00000000E+00
  0.00000000E+00  0.00000000E+00  0.00000000E+00
  0.00000000E+00  0.00000000E+00  0.00000000E+00
  0.00000000E+00  0.00000000E+00  0.00000000E+00
  0.00000000E+00  0.00000000E+00  0.00000000E+00
  0.00000000E+00  0.00000000E+00  0.00000000E+00
  0.00000000E+00  0.00000000E+00  0.00000000E+00
  0.00000000E+00  0.00000000E+00  0.00000000E+00
  0.00000000E+00  0.00000000E+00  0.00000000E+00
  0.00000000E+00  0.00000000E+00  0.00000000E+00
  0.00000000E+00  0.00000000E+00  0.00000000E+00
  0.00000000E+00  0.00000000E+00  0.00000000E+00
  0.00000000E+00  0.00000000E+00  0.00000000E+00
  0.00000000E+00  0.00000000E+00  0.00000000E+00
  0.00000000E+00  0.00000000E+00  0.00000000E+00
  0.00000000E+00  0.00000000E+00  0.00000000E+00
  0.00000000E+00  0.00000000E+00  0.00000000E+00
  0.00000000E+00  0.00000000E+00  0.00000000E+00
  0.00000000E+00  0.00000000E+00  0.00000000E+00
  0.00000000E+00  0.00000000E+00  0.00000000E+00
  0.00000000E+00  0.00000000E+00  0.00000000E+00
  0.00000000E+00  0.00000000E+00  0.00000000E+00
  0.00000000E+00  0.00000000E+00  0.00000000E+00
  0.00000000E+00  0.00000000E+00  0.00000000E+00
  0.00000000E+00  0.00000000E+00  0.00000000E+00
  0.00000000E+00  0.00000000E+00  0.00000000E+00
  0.00000000E+00  0.00000000E+00  0.00000000E+00
  0.00000000E+00  0.00000000E+00  0.00000000E+00
  0.00000000E+00  0.00000000E+00  0.00000000E+00
  0.00000000E+00  0.00000000E+00  0.00000000E+00
  0.00000000E+00  0.00000000E+00  0.00000000E+00
  0.00000000E+00  0.00000000E+00  0.00000000E+00
  0.00000000E+00  0.00000000E+00  0.00000000E+00
  0.00000000E+00  0.00000000E+00  0.00000000E+00
  0.00000000E+00  0.00000000E+00  0.00000000E+00
  0.00000000E+00  0.00000000E+00  0.00000000E+00
  0.00000000E+00  0.00000000E+00  0.00000000E+00
  0.00000000E+00  0.00000000E+00  0.00000000E+00
  0.00000000E+00  0.00000000E+00  0.00000000E+00
  0.00000000E+00  0.00000000E+00  0.00000000E+00
  0.00000000E+00  0.00000000E+00  0.00000000E+00
  0.00000000E+00  0.00000000E+00  0.00000000E+00
  0.00000000E+00  0.00000000E+00  0.00000000E+00
  0.00000000E+00  0.00000000E+00  0.00000000E+00
  0.00000000E+00  0.00000000E+00  0.00000000E+00
  0.00000000E+00  0.00000000E+00  0.00000000E+00
  0.00000000E+00  0.00000000E+00  0.00000000E+00
  0.00000000E+00  0.00000000E+00  0.00000000E+00
  0.00000000E+00  0.00000000E+00  0.00000000E+00
  0.00000000E+00  0.00000000E+00  0.00000000E+00
  0.00000000E+00  0.00000000E+00  0.00000000E+00
  0.00000000E+00  0.00000000E+00  0.00000000E+00
  0.00000000E+00  0.00000000E+00  0.00000000E+00
  0.00000000E+00  0.00000000E+00  0.00000000E+00
  0.00000000E+00  0.00000000E+00  0.00000000E+00
  0.00000000E+00  0.00000000E+00  0.00000000E+00
  0.00000000E+00  0.00000000E+00  0.00000000E+00
  0.00000000E+00  0.00000000E+00  0.00000000E+00
  0.00000000E+00  0.00000000E+00  0.00000000E+00
  0.00000000E+00  0.00000000E+00  0.00000000E+00
  0.00000000E+00  0.00000000E+00  0.00000000E+00
  0.00000000E+00  0.00000000E+00  0.00000000E+00
  0.00000000E+00  0.00000000E+00  0.00000000E+00
  0.00000000E+00  0.00000000E+00  0.00000000E+00
  0.00000000E+00  0.00000000E+00  0.00000000E+00
  0.00000000E+00  0.00000000E+00  0.00000000E+00
  0.00000000E+00  0.00000000E+00  0.00000000E+00
  0.00000000E+00  0.00000000E+00  0.00000000E+00
  0.00000000E+00  0.00000000E+00  0.00000000E+00
  0.00000000E+00  0.00000000E+00  0.00000000E+00
  0.00000000E+00  0.00000000E+00  0.00000000E+00
  0.00000000E+00  0.00000000E+00  0.00000000E+00
  0.00000000E+00  0.00000000E+00  0.00000000E+00
  0.00000000E+00  0.00000000E+00  0.00000000E+00
  0.00000000E+00  0.00000000E+00  0.00000000E+00
  0.00000000E+00  0.00000000E+00  0.00000000E+00
  0.00000000E+00  0.00000000E+00  0.00000000E+00
  0.00000000E+00  0.00000000E+00  0.00000000E+00
  0.00000000E+00  0.00000000E+00  0.00000000E+00
  0.00000000E+00  0.00000000E+00  0.00000000E+00
  0.00000000E+00  0.00000000E+00  0.00000000E+00
  0.00000000E+00  0.00000000E+00  0.00000000E+00
  0.00000000E+00  0.00000000E+00  0.00000000E+00
  0.00000000E+00  0.00000000E+00  0.00000000E+00
  0.00000000E+00  0.00000000E+00  0.00000000E+00
  0.00000000E+00  0.00000000E+00  0.00000000E+00
  0.00000000E+00  0.00000000E+00  0.00000000E+00
  0.00000000E+00  0.00000000E+00  0.00000000E+00
  0.00000000E+00  0.00000000E+00  0.00000000E+00
  0.00000000E+00  0.00000000E+00  0.00000000E+00
  0.00000000E+00  0.00000000E+00  0.00000000E+00
  0.00000000E+00  0.00000000E+00  0.00000000E+00
  0.00000000E+00  0.00000000E+00  0.00000000E+00
  0.00000000E+00  0.00000000E+00  0.00000000E+00
  0.00000000E+00  0.00000000E+00  0.00000000E+00
  0.00000000E+00  0.00000000E+00  0.00000000E+00
  0.00000000E+00  0.00000000E+00  0.00000000E+00
  0.00000000E+00  0.00000000E+00  0.00000000E+00
  0.00000000E+00  0.00000000E+00  0.00000000E+00
  0.00000000E+00  0.00000000E+00  0.00000000E+00
  0.00000000E+00  0.00000000E+00  0.00000000E+00
  0.00000000E+00  0.00000000E+00  0.00000000E+00
  0.00000000E+00  0.00000000E+00  0.00000000E+00
  0.00000000E+00  0.00000000E+00  0.00000000E+00
  0.00000000E+00  0.00000000E+00  0.00000000E+00
  0.00000000E+00  0.00000000E+00  0.00000000E+00
  0.00000000E+00  0.00000000E+00  0.00000000E+00
  0.00000000E+00  0.00000000E+00  0.00000000E+00
  0.00000000E+00  0.00000000E+00  0.00000000E+00
  0.00000000E+00  0.00000000E+00  0.00000000E+00
  0.00000000E+00  0.00000000E+00  0.00000000E+00
  0.00000000E+00  0.00000000E+00  0.00000000E+00
  0.00000000E+00  0.00000000E+00  0.00000000E+00
  0.00000000E+00  0.00000000E+00  0.00000000E+00
  0.00000000E+00  0.00000000E+00  0.00000000E+00
  0.00000000E+00  0.00000000E+00  0.00000000E+00
  0.00000000E+00  0.00000000E+00  0.00000000E+00
  0.00000000E+00  0.00000000E+00  0.00000000E+00
  0.00000000E+00  0.00000000E+00  0.00000000E+00
  0.00000000E+00  0.00000000E+00  0.00000000E+00
  0.00000000E+00  0.00000000E+00  0.00000000E+00
  0.00000000E+00  0.00000000E+00  0.00000000E+00
  0.00000000E+00  0.00000000E+00  0.00000000E+00
  0.00000000E+00  0.00000000E+00  0.00000000E+00
  0.00000000E+00  0.00000000E+00  0.00000000E+00
  0.00000000E+00  0.00000000E+00  0.00000000E+00
  0.00000000E+00  0.00000000E+00  0.00000000E+00
  0.00000000E+00  0.00000000E+00  0.00000000E+00
  0.00000000E+00  0.00000000E+00  0.00000000E+00
  0.00000000E+00  0.00000000E+00  0.00000000E+00
  0.00000000E+00  0.00000000E+00  0.00000000E+00
  0.00000000E+00  0.00000000E+00  0.00000000E+00
  0.00000000E+00  0.00000000E+00  0.00000000E+00