GaN_ONH                                 
    1.000000000000000     
    15.8909244537000003    0.0000000000000000    0.0000000000000000
     0.0000000000000000   16.5143318175999987    0.0000000000000000
     0.0000000000000000    0.0000000000000000   15.4982528686999999
   Ga   N    O    H 
   180   179     1     1
Direct
  0.0997988775824488  0.0557658039236655  0.3333370292305981
  0.0995075822982912  0.0549897658588920  0.6669730494650412
  0.0998304393450290  0.0553975425013664  0.0001963186108414
  0.1001972264232724  0.3889850905150748  0.3336543366262502
  0.0998665241850207  0.3885619166607665  0.6667681769808887
  0.0998164735870247  0.3887564976182782  0.0004024186635284
  0.1001067204939692  0.7225143903420753  0.3328587961415455
  0.0998747260436331  0.7217629068155957  0.6662709431543802
  0.1000240460586456  0.7221165699539970  0.9994009476452445
  0.2999465506138834  0.0555055989268180  0.3335161310041643
  0.2998168563333691  0.0548700880442166  0.6668686096181081
  0.2999576430988051  0.0552584959726806  0.0002471814748684
  0.3003175244173494  0.3892290631032079  0.3347776011111354
  0.2979842922325592  0.3851150537824667  0.6706827752710737
  0.3000516352334510  0.3886941098425629  0.0002038418647092
  0.2997674799571393  0.7229215352293988  0.3335099244160402
  0.3003298003146241  0.7215761676495032  0.6652262830598337
  0.3000223519811698  0.7224916447439198  0.9983538267018565
  0.5000534930002927  0.0555055900375233  0.3335161851522885
  0.5001831066614700  0.0548701093680731  0.6668686899882080
  0.5000424238307579  0.0552584955314194  0.0002471713632413
  0.4996824592952035  0.3892290037884433  0.3347773757722554
  0.5020157987439088  0.3851154690580957  0.6706831457162309
  0.4999483871650275  0.3886940991474097  0.0002038209097381
  0.5002325651570423  0.7229215446202514  0.3335101717139592
  0.4996701804763973  0.7215762163794264  0.6652260598450501
  0.4999776911213232  0.7224915524197981  0.9983538320842390
  0.7002011065988492  0.0557657656934181  0.3333372417190214
  0.7004924056926526  0.0549897508617649  0.6669734448485076
  0.7001695760323564  0.0553975202736783  0.0001964650337686
  0.6998028193252745  0.3889851052098234  0.3336541474867656
  0.7001334618284331  0.3885619194299008  0.6667682394190003
  0.7001835624680639  0.3887564422262779  0.0004025945575015
  0.6998932514783287  0.7225144279151915  0.3328587633761533
  0.7001252935107916  0.7217628423185942  0.6662710555973986
  0.6999759587881057  0.7221165917644971  0.9994009385403783
  0.8999999840127657  0.0556880098401056  0.3334060284621650
  0.8999999997870844  0.0552912678808156  0.6667589642280251
  0.8999999827492147  0.0554631131387676  0.0001375560337379
  0.8999999885849874  0.3890394488883911  0.3334025156293512
  0.9000000155202343  0.3888270293544138  0.6666828075530497
  0.8999999781553001  0.3889237814192890  0.0001270532649158
  0.8999999949253592  0.7222324763349430  0.3329140246910231
  0.8999999860720393  0.7217970743655908  0.6664077450635798
  0.9000000055696091  0.7220825529570810  0.9997598475564554
  0.9999517970668849  0.2224213371100245  0.3335801857329517
  0.9998224033417681  0.2220675899426106  0.6669254600700724
  0.9999119238506551  0.2221745031260703  0.0002895622168151
  0.9999856401787403  0.5556129074783103  0.3331330448558596
  0.0002409550875552  0.5552958505575006  0.6661728508550682
  0.9999922269997358  0.5555249446443385  0.9997331535777526
  0.9999367412863162  0.8889513368476581  0.3331268428280552
  0.9998215506490616  0.8884065340195590  0.6665852078740589
  0.9999098683545591  0.8887484619979390  0.9999057773258270
  0.2000554847699762  0.2222407863651757  0.3335794341163995
  0.1991705855250909  0.2206845201076299  0.6674607347081004
  0.1997592242659907  0.2218950456393427  0.0008053155854705
  0.2000131694290378  0.5556410533111316  0.3317129947712717
  0.2008600764771767  0.5548800212705649  0.6656283943530539
  0.1996415794268584  0.5554076242124185  0.9990628176692063
  0.1996562176615903  0.8892861637940876  0.3330876155250713
  0.1997811120650594  0.8887324079612886  0.6667617847710607
  0.1999148608269986  0.8887404442927855  0.9995954009568992
  0.4000000092211593  0.2220523607150875  0.3339971692140212
  0.4000000197068232  0.2209633366663587  0.6676100457286315
  0.3999999765990836  0.2216366856742559  0.0011207882912445
  0.4000000109654920  0.5606508246033618  0.3216694647978505
  0.3999999348485872  0.5511752018954292  0.6640939375774476
  0.4000000474716643  0.5552638185588346  0.9992833091176533
  0.4000000306002249  0.8890595627486949  0.3329395081908434
  0.4000000013114615  0.8885211264880162  0.6660178856481860
  0.4000000363452898  0.8886891486920515  0.9996479843875488
  0.5999444959108116  0.2222407895075793  0.3335794708520558
  0.6008293936946789  0.2206845303463731  0.6674612654745570
  0.6002408098080619  0.2218950640577189  0.0008055316014543
  0.5999868635569324  0.5556410155763172  0.3317129715701116
  0.5991399636252557  0.5548800087909902  0.6656278600052274
  0.6003583793273267  0.5554076694755540  0.9990631087389951
  0.6003438274435177  0.8892861900267073  0.3330879397364704
  0.6002188270904030  0.8887324463423132  0.6667620150491436
  0.6000851650733329  0.8887404496036519  0.9995954843210983
  0.8000481562009013  0.2224212902504061  0.3335802486327100
  0.8001775813251005  0.2220675889044792  0.6669255768329704
  0.8000880588103443  0.2221744742121537  0.0002896373694637
  0.8000143586854188  0.5556129345017995  0.3331330773980845
  0.7997590549798733  0.5552957958385832  0.6661726658214335
  0.8000076852387904  0.5555249384866118  0.9997331479354393
  0.8000631774432311  0.8889513089221918  0.3331269542475936
  0.8001784752376558  0.8884065472527993  0.6665853753207164
  0.8000901056398368  0.8887484587145992  0.9999058757186018
  0.0999219581467924  0.2778354784713414  0.1670792437858567
  0.0999830308322368  0.2779467334440790  0.5003205431123665
  0.0998489434697076  0.2775647944164585  0.8338111560713609
  0.0997756811970519  0.6112788309280355  0.1661767185936373
  0.1009203445602166  0.6111726653679175  0.4992585948347394
  0.1001336248459725  0.6108785551890518  0.8326001012748835
  0.0998814503907030  0.9446015637962365  0.1664577197794803
  0.0988811763296695  0.9453737935229470  0.5000700051396272
  0.0997931290107642  0.9441374283619866  0.8334216203470055
  0.3000494184916271  0.2778633549568146  0.1673095487393021
  0.2990857001528829  0.2749560932007619  0.5010432639494867
  0.2996744763479181  0.2764167680437293  0.8351125850537578
  0.2985259407116884  0.6123248350164823  0.1630834490341616
  0.2982474962584508  0.6171627440570994  0.4975349319477013
  0.3004497312430551  0.6104922395274479  0.8323179255188103
  0.2999412415547382  0.9444511966564020  0.1664421169056731
  0.2996252217123018  0.9447331561780232  0.4998204889116183
  0.3000180041534144  0.9440837672974913  0.8332489643460371
  0.4999505674193095  0.2778633919319949  0.1673095166870888
  0.5009143344294423  0.2749561340688494  0.5010437785139702
  0.5003254976431951  0.2764167675164995  0.8351128389276931
  0.5014740729218475  0.6123249320581459  0.1630839762617459
  0.5017524813416440  0.6171628474055261  0.4975351742720059
  0.4995503040392685  0.6104921920278650  0.8323175444386545
  0.5000587826613513  0.9444511959680566  0.1664421963726163
  0.5003748350937610  0.9447331077513383  0.4998206775111472
  0.4999819811279742  0.9440837506544844  0.8332489692249788
  0.7000780631779281  0.2778354179772393  0.1670793459379639
  0.7000169506444583  0.2779467340664576  0.5003205904835615
  0.7001510939415654  0.2775647925912731  0.8338112611844773
  0.7002243378064392  0.6112788294193756  0.1661768357702346
  0.6990796429187315  0.6111726375048225  0.4992582323166741
  0.6998663418727642  0.6108785517505365  0.8325999807611796
  0.7001185405909862  0.9446015781988241  0.1664578214879744
  0.7011188206438703  0.9453738174861998  0.5000706730807429
  0.7002068632684827  0.9441374531954125  0.8334217780675053
  0.9000000038528313  0.2779337743517982  0.1668189010104061
  0.9000000047733110  0.2782788158887959  0.5002212625257979
  0.9000000286419620  0.2777411940964440  0.8335895073426330
  0.8999999623829993  0.6111468918747768  0.1664043367366832
  0.8999999921182891  0.6109794088036112  0.4996799628590011
  0.8999999843304565  0.6109007574455255  0.8329867919226073
  0.8999999892556119  0.9445078237072386  0.1665724946320797
  0.8999999819203595  0.9445776282076007  0.4999374231079108
  0.8999999783917971  0.9442373289068177  0.8333518317655861
  0.9999205200624119  0.1112543580581037  0.1667672072137529
  0.9996568846411634  0.1116778127064275  0.5001958430219249
  0.9998665556594576  0.1109733163478380  0.8336008945042430
  0.0000219582437469  0.4445544559420467  0.1667054217586135
  0.0003249396742115  0.4445223798663092  0.4999423279744838
  0.9998957603809352  0.4443480764110688  0.8333291762288447
  0.0000180635889418  0.7778340031232985  0.1662854463249195
  0.9995688419276572  0.7776510638735515  0.4996899221064136
  0.9999325172582246  0.7774972623204508  0.8331536767007791
  0.1999864742804228  0.1110821867713003  0.1668977133956862
  0.1993968198452219  0.1104445112546165  0.5002583918316896
  0.1997505438178269  0.1104780927591986  0.8338745308425243
  0.2000810545492801  0.4444733133016834  0.1665774158158305
  0.2013706421017252  0.4442323617093254  0.5006342729291642
  0.1993948179000841  0.4442083256717064  0.8340601325548573
  0.1998893698030257  0.7781851003579130  0.1660932601888450
  0.1973549479058130  0.7809677470585228  0.5004140162668194
  0.1999833182189061  0.7774217483028115  0.8323753596169143
  0.4000000491879518  0.1109693150826054  0.1670748963956583
  0.4000000454923978  0.1102467417890005  0.5004470971193566
  0.4000000283783436  0.1105044818686567  0.8337925217622232
  0.3999999605000042  0.4448733909159699  0.1669211288328907
  0.4000000041089322  0.4319784660592173  0.5099196643471178
  0.3999999883765000  0.4434828990576200  0.8328936579233140
  0.4000000339237602  0.7778784998349045  0.1660889595282546
  0.3999999647076748  0.7791994916436953  0.4984969584897787
  0.4000000294441790  0.7774380267470992  0.8319037374782878
  0.6000135559882829  0.1110821771764155  0.1668977827268084
  0.6006031953017984  0.1104445348002975  0.5002588066583693
  0.6002494315676837  0.1104781074947110  0.8338747421807139
  0.5999189228133868  0.4444733052547941  0.1665773439602423
  0.5986293081908765  0.4442322868245017  0.5006336805881613
  0.6006052612702474  0.4442083643043697  0.8340605634545111
  0.6001106559816365  0.7781850958400265  0.1660933893391177
  0.6026450989696264  0.7809676287269098  0.5004145322861391
  0.6000166616792260  0.7774217039775712  0.8323753955109185
  0.8000794843649557  0.1112543923770550  0.1667673068869399
  0.8003431133592528  0.1116778468426343  0.5001961031389159
  0.8001334861770329  0.1109733608304210  0.8336009836610210
  0.7999780292615837  0.4445544463835558  0.1667053924373925
  0.7996750454458554  0.4445223401850340  0.4999421619258547
  0.8001042514702540  0.4443480892815486  0.8333292066795658
  0.7999819146730377  0.7778340222990280  0.1662854919027899
  0.8004311480646582  0.7776510904471606  0.4996901239526689
  0.8000674659828689  0.7774972782660956  0.8331537534034980
  0.0999751135301447  0.0557625998546380  0.1257945401426905
  0.0990778650129715  0.0560575539418830  0.4589057336756313
  0.0997566488843434  0.0552285668229503  0.7925180010371187
  0.1000642263404980  0.3888750060465146  0.1260229701313984
  0.1006411179493828  0.3892919268719645  0.4593234047852445
  0.0997447193385987  0.3886105598103873  0.7923884502454259
  0.1000761714197698  0.7222868720912831  0.1250917206554906
  0.0994703429675725  0.7223798869420323  0.4585762554933550
  0.0998399637836038  0.7219185552155538  0.7917635830678731
  0.3000179266293213  0.0556338613393641  0.1258007599167248
  0.2996376587078691  0.0557527595961319  0.4590482968181500
  0.2998785222909756  0.0552413267276663  0.7925926465160605
  0.3003302478982000  0.3890475219451424  0.1261821716031561
  0.2994774064437160  0.3857684052948793  0.4601640412021142
  0.2987924032783839  0.3874048993309999  0.7955350778897431
  0.2999100526858692  0.7233537035967327  0.1237030805243750
  0.2961612123734071  0.7288059244348384  0.4589607568099640
  0.2999611671983007  0.7215846317453811  0.7910495761736906
  0.4999821229876832  0.0556338477318170  0.1258007374091610
  0.5003624153318322  0.0557527161214112  0.4590483647638062
  0.5001215011481921  0.0552413165069283  0.7925926474584178
  0.4996696981658339  0.3890475553131032  0.1261821363363337
  0.5005225405725091  0.3857683561122195  0.4601639683368235
  0.5012076522654140  0.3874049127141860  0.7955352865070443
  0.5000899769272399  0.7233536831997721  0.1237031254310241
  0.5038388289768662  0.7288059530877584  0.4589609191825433
  0.5000388324111963  0.7215846304652460  0.7910494587965142
  0.7000249167822663  0.0557626133984281  0.1257945768922521
  0.7009221684747912  0.0560575253975339  0.4589059169676475
  0.7002433544008126  0.0552285998820383  0.7925181291596055
  0.6999357640919063  0.3888749607074364  0.1260230192916689
  0.6993588925134769  0.3892919081797452  0.4593232831408184
  0.7002552637750662  0.3886105509439082  0.7923885238822737
  0.6999238470994296  0.7222868562760868  0.1250917257978660
  0.7005296653269595  0.7223799107620751  0.4585762855790347
  0.7001600709236704  0.7219185845574729  0.7917635852093849
  0.9000000122844725  0.0556524843982611  0.1258016244326149
  0.8999999855994361  0.0557625228839741  0.4590794734909319
  0.9000000020734404  0.0553582218887389  0.7922848955201783
  0.9000000089605606  0.3890369243826050  0.1258268971275835
  0.9000000408407942  0.3893331109073016  0.4590488230789450
  0.9000000306158213  0.3887936032848123  0.7922156786921809
  0.9000000072423404  0.7222102259403216  0.1254489863923252
  0.8999999767522979  0.7219429021511874  0.4585436253358595
  0.8999999898095936  0.7219485991816768  0.7919095484049665
  0.0000135249098859  0.2223841961902075  0.1259534109280458
  0.9997941919404106  0.2227445617541590  0.4592020229315493
  0.9999151007160518  0.2220813234990093  0.7924830929454691
  0.9999353403683144  0.5555691939547306  0.1254387112035084
  0.0005303319146218  0.5556246103965690  0.4588233907929851
  0.0000441955650156  0.5553470347141142  0.7917626432516255
  0.9999874573992611  0.8889502719149721  0.1255413399684774
  0.9996501236250438  0.8888145084510193  0.4588118115790542
  0.9999198702458855  0.8885709075761900  0.7921174636457216
  0.2000464464091424  0.2223265039859563  0.1263768191877352
  0.1990303076450818  0.2212421754416286  0.4591022452918266
  0.1996421750781146  0.2215026567761561  0.7930825841100178
  0.1992233968098583  0.5552349944329723  0.1243798313403644
  0.2024506580193469  0.5554848742449404  0.4577089128537544
  0.2002739871913533  0.5551256393850903  0.7914665312914420
  0.1999017393692245  0.8892192395836106  0.1251795382059653
  0.1985703426386343  0.8912001025865520  0.4586177380782501
  0.1999011460613772  0.8887762172289758  0.7922770607218119
  0.4000000023543535  0.2221617918201766  0.1265834251571668
  0.4000000256913978  0.2212420971616044  0.4596173653915271
  0.4000000245603132  0.2217361591987279  0.7933604759176848
  0.4000000319871759  0.5560602098397286  0.1253058282568394
  0.3999999531070983  0.5545288064887809  0.7909264223249007
  0.4000000077818839  0.8890408949469908  0.1252761468227675
  0.4000000201790854  0.8904442690369750  0.4584324329740822
  0.3999999915733738  0.8887033682440457  0.7917720792777073
  0.5999535415180658  0.2223264992672846  0.1263768619730021
  0.6009696566233697  0.2212421663352702  0.4591023257885736
  0.6003578207140912  0.2215026575373605  0.7930827604165533
  0.6007765814806566  0.5552350224499992  0.1243799943575411
  0.5975492594001443  0.5554848933876367  0.4577088399271225
  0.5997260372328683  0.5551255775350452  0.7914663713414509
  0.6000982454712936  0.8892192274556409  0.1251795631743659
  0.6014297341828916  0.8912000119023559  0.4586179819403397
  0.6000988484508142  0.8887762037970394  0.7922771110738474
  0.7999864907777651  0.2223842108964242  0.1259534228200798
  0.8002057901661949  0.2227445698287667  0.4592020758924560
  0.8000849016164440  0.2220813344487216  0.7924831281986136
  0.8000646065651467  0.5555691820385736  0.1254387091626805
  0.7994696472374617  0.5556246040801993  0.4588233772592065
  0.7999558239825308  0.5553470436646576  0.7917625738624733
  0.8000125066242521  0.8889502823115766  0.1255413664664066
  0.8003497945019632  0.8888145179497464  0.4588119194094921
  0.8000800874547139  0.8885709113992012  0.7921174994401787
  0.1000508671509014  0.2778982554708226  0.2927133298567871
  0.0999032455964309  0.2773754381366678  0.6260000147378630
  0.1000671157163354  0.2776642413198299  0.9593905699735178
  0.0996571013007616  0.6112206927030631  0.2919444673365372
  0.1005952509545026  0.6105488766246595  0.6249609116843339
  0.0999167094242120  0.6110367878940123  0.9581507590293673
  0.0996727365940022  0.9448239230508118  0.2920438864534294
  0.0995537511869245  0.9440914231444117  0.6257028155196105
  0.0999381819637146  0.9443602778576874  0.9589231845153136
  0.3002565407961510  0.2782487164497577  0.2929291050823762
  0.2992195340116723  0.2752691429777344  0.6266869397978392
  0.3000346725042029  0.2771622104896765  0.9604770791073083
  0.2969841846669511  0.6129656125082259  0.2875398167596351
  0.3013635613066138  0.6099902434029220  0.6227807468123743
  0.3000317687005720  0.6109253651098496  0.9581964277444367
  0.2998587663803960  0.9445460550603443  0.2919817460877888
  0.2997570003855243  0.9439308861101394  0.6255438080148992
  0.3000315847287218  0.9442839652924010  0.9588405350495834
  0.4997434451237171  0.2782486809220240  0.2929290469080326
  0.5007804890979528  0.2752692782429023  0.6266872043950509
  0.4999653469236740  0.2771621804804298  0.9604771708220472
  0.5030158763803271  0.6129656042933926  0.2875400161145286
  0.4986363967300865  0.6099902493003982  0.6227807407373547
  0.4999682405459878  0.6109253291392205  0.9581963050915302
  0.5001412721037823  0.9445460419883119  0.2919817735385629
  0.5002430240832697  0.9439308998036124  0.6255438667746092
  0.4999684575444541  0.9442839638819737  0.9588405334542160
  0.6999491260280417  0.2778982542165797  0.2927133457019611
  0.7000967427372361  0.2773754024789901  0.6260000683237277
  0.6999328766912781  0.2776642197222368  0.9593905992833062
  0.7003429170729754  0.6112206956521992  0.2919444967839933
  0.6994048023554625  0.6105489038215069  0.6249607720256315
  0.7000832796776157  0.6110368182503875  0.9581507398290886
  0.7003272942108364  0.9448239283115423  0.2920438894399685
  0.7004462362237334  0.9440914007940910  0.6257030464498792
  0.7000618278243782  0.9443602826368263  0.9589231962147479
  0.8999999828015888  0.2779913053487497  0.2925161887789720
  0.9000000042985477  0.2777563423779983  0.6258146079740906
  0.9000000076211023  0.2778074490544142  0.9591378500933900
  0.9000000025541510  0.6110473276489515  0.2921712080008345
  0.9000000063731193  0.6107184413007795  0.6252815134130950
  0.8999999897164059  0.6109647843397167  0.9585674887096254
  0.8999999782875818  0.9446313885545655  0.2922839280149540
  0.8999999856486198  0.9442213602375187  0.6255794637615344
  0.8999999950554596  0.9443941402880389  0.9588659860398443
  0.9998889420949936  0.1114159796327883  0.2924382508083437
  0.9998260357681886  0.1110193181808426  0.6258215070960581
  0.9999944543216395  0.1110990089807715  0.9591262680028994
  0.0001338047040052  0.4444519532270488  0.2924346224780147
  0.0000444975712464  0.4441753345524634  0.6255212330023724
  0.0000451259549545  0.4443567338591302  0.9589239027533922
  0.9999044797885863  0.7778638815553857  0.2919862279603517
  0.9998459857649763  0.7773538215942113  0.6253248339774081
  0.9999893605386456  0.7776552791136486  0.9586724844004261
  0.1999832395874740  0.1111866072446922  0.2924443141051871
  0.1994846922683225  0.1099899643033773  0.6259200095619241
  0.1999964722171544  0.1108691620057841  0.9594328527135920
  0.2003728588207142  0.4442268044435419  0.2923814512347507
  0.2005760699437937  0.4433991139283877  0.6262287699447910
  0.1998613109532681  0.4441665180666373  0.9594449498196099
  0.1995941619016783  0.7784678722382808  0.2914971665212149
  0.1995615896390216  0.7776209516736993  0.6259503669735422
  0.1998820597606634  0.7777530000470479  0.9579588549761131
  0.3999999980178970  0.1110593758746188  0.2925372173760339
  0.3999999809842905  0.1100526471444346  0.6261495851596884
  0.4000000108869486  0.1107640879995017  0.9594163742091538
  0.3999999991902143  0.4466408752482130  0.2944307702891860
  0.3999999972471571  0.4361181267975185  0.6359427445345158
  0.4000000157902335  0.4441241725766817  0.9589891939329407
  0.4000000335505902  0.7778049241358244  0.2916990227904767
  0.3999999988632013  0.7775198625825281  0.6246063216652307
  0.4000000230372578  0.7778712362146368  0.9574700544774658
  0.6000167764362140  0.1111866181213251  0.2924443278582888
  0.6005152941924675  0.1099899495524390  0.6259202083731458
  0.6000035317771161  0.1108692017480025  0.9594329173361180
  0.5996271399926766  0.4442267960862519  0.2923813917300366
  0.5994239441265982  0.4433991158568859  0.6262285452799958
  0.6001387341908627  0.4441665063163778  0.9594451017618838
  0.6004057954434792  0.7784678936787587  0.2914972228808110
  0.6004384502369963  0.7776209798570145  0.6259505342745171
  0.6001179338827900  0.7777530207680800  0.9579588685406510
  0.8001110334408111  0.1114159662847101  0.2924382847849910
  0.8001738995946240  0.1110192905447590  0.6258216081799851
  0.8000055300463536  0.1110990026279510  0.9591262583184861
  0.7998662040621993  0.4444519968728184  0.2924345937711645
  0.7999555227827733  0.4441752874493349  0.6255211753066220
  0.7999548432529910  0.4443567224805273  0.9589239098820401
  0.8000955278315767  0.7778638624057829  0.2919862519992132
  0.8001539585464400  0.7773538514933025  0.6253249242045903
  0.8000106344075737  0.7776552968083867  0.9586724984356488
  0.4000000367995469  0.6078876601235395  0.4312197149030685
  0.3999999991440788  0.5238090432141810  0.5094230705018987
 
  0.00000000E+00  0.00000000E+00  0.00000000E+00
  0.00000000E+00  0.00000000E+00  0.00000000E+00
  0.00000000E+00  0.00000000E+00  0.00000000E+00
  0.00000000E+00  0.00000000E+00  0.00000000E+00
  0.00000000E+00  0.00000000E+00  0.00000000E+00
  0.00000000E+00  0.00000000E+00  0.00000000E+00
  0.00000000E+00  0.00000000E+00  0.00000000E+00
  0.00000000E+00  0.00000000E+00  0.00000000E+00
  0.00000000E+00  0.00000000E+00  0.00000000E+00
  0.00000000E+00  0.00000000E+00  0.00000000E+00
  0.00000000E+00  0.00000000E+00  0.00000000E+00
  0.00000000E+00  0.00000000E+00  0.00000000E+00
  0.00000000E+00  0.00000000E+00  0.00000000E+00
  0.00000000E+00  0.00000000E+00  0.00000000E+00
  0.00000000E+00  0.00000000E+00  0.00000000E+00
  0.00000000E+00  0.00000000E+00  0.00000000E+00
  0.00000000E+00  0.00000000E+00  0.00000000E+00
  0.00000000E+00  0.00000000E+00  0.00000000E+00
  0.00000000E+00  0.00000000E+00  0.00000000E+00
  0.00000000E+00  0.00000000E+00  0.00000000E+00
  0.00000000E+00  0.00000000E+00  0.00000000E+00
  0.00000000E+00  0.00000000E+00  0.00000000E+00
  0.00000000E+00  0.00000000E+00  0.00000000E+00
  0.00000000E+00  0.00000000E+00  0.00000000E+00
  0.00000000E+00  0.00000000E+00  0.00000000E+00
  0.00000000E+00  0.00000000E+00  0.00000000E+00
  0.00000000E+00  0.00000000E+00  0.00000000E+00
  0.00000000E+00  0.00000000E+00  0.00000000E+00
  0.00000000E+00  0.00000000E+00  0.00000000E+00
  0.00000000E+00  0.00000000E+00  0.00000000E+00
  0.00000000E+00  0.00000000E+00  0.00000000E+00
  0.00000000E+00  0.00000000E+00  0.00000000E+00
  0.00000000E+00  0.00000000E+00  0.00000000E+00
  0.00000000E+00  0.00000000E+00  0.00000000E+00
  0.00000000E+00  0.00000000E+00  0.00000000E+00
  0.00000000E+00  0.00000000E+00  0.00000000E+00
  0.00000000E+00  0.00000000E+00  0.00000000E+00
  0.00000000E+00  0.00000000E+00  0.00000000E+00
  0.00000000E+00  0.00000000E+00  0.00000000E+00
  0.00000000E+00  0.00000000E+00  0.00000000E+00
  0.00000000E+00  0.00000000E+00  0.00000000E+00
  0.00000000E+00  0.00000000E+00  0.00000000E+00
  0.00000000E+00  0.00000000E+00  0.00000000E+00
  0.00000000E+00  0.00000000E+00  0.00000000E+00
  0.00000000E+00  0.00000000E+00  0.00000000E+00
  0.00000000E+00  0.00000000E+00  0.00000000E+00
  0.00000000E+00  0.00000000E+00  0.00000000E+00
  0.00000000E+00  0.00000000E+00  0.00000000E+00
  0.00000000E+00  0.00000000E+00  0.00000000E+00
  0.00000000E+00  0.00000000E+00  0.00000000E+00
  0.00000000E+00  0.00000000E+00  0.00000000E+00
  0.00000000E+00  0.00000000E+00  0.00000000E+00
  0.00000000E+00  0.00000000E+00  0.00000000E+00
  0.00000000E+00  0.00000000E+00  0.00000000E+00
  0.00000000E+00  0.00000000E+00  0.00000000E+00
  0.00000000E+00  0.00000000E+00  0.00000000E+00
  0.00000000E+00  0.00000000E+00  0.00000000E+00
  0.00000000E+00  0.00000000E+00  0.00000000E+00
  0.00000000E+00  0.00000000E+00  0.00000000E+00
  0.00000000E+00  0.00000000E+00  0.00000000E+00
  0.00000000E+00  0.00000000E+00  0.00000000E+00
  0.00000000E+00  0.00000000E+00  0.00000000E+00
  0.00000000E+00  0.00000000E+00  0.00000000E+00
  0.00000000E+00  0.00000000E+00  0.00000000E+00
  0.00000000E+00  0.00000000E+00  0.00000000E+00
  0.00000000E+00  0.00000000E+00  0.00000000E+00
  0.00000000E+00  0.00000000E+00  0.00000000E+00
  0.00000000E+00  0.00000000E+00  0.00000000E+00
  0.00000000E+00  0.00000000E+00  0.00000000E+00
  0.00000000E+00  0.00000000E+00  0.00000000E+00
  0.00000000E+00  0.00000000E+00  0.00000000E+00
  0.00000000E+00  0.00000000E+00  0.00000000E+00
  0.00000000E+00  0.00000000E+00  0.00000000E+00
  0.00000000E+00  0.00000000E+00  0.00000000E+00
  0.00000000E+00  0.00000000E+00  0.00000000E+00
  0.00000000E+00  0.00000000E+00  0.00000000E+00
  0.00000000E+00  0.00000000E+00  0.00000000E+00
  0.00000000E+00  0.00000000E+00  0.00000000E+00
  0.00000000E+00  0.00000000E+00  0.00000000E+00
  0.00000000E+00  0.00000000E+00  0.00000000E+00
  0.00000000E+00  0.00000000E+00  0.00000000E+00
  0.00000000E+00  0.00000000E+00  0.00000000E+00
  0.00000000E+00  0.00000000E+00  0.00000000E+00
  0.00000000E+00  0.00000000E+00  0.00000000E+00
  0.00000000E+00  0.00000000E+00  0.00000000E+00
  0.00000000E+00  0.00000000E+00  0.00000000E+00
  0.00000000E+00  0.00000000E+00  0.00000000E+00
  0.00000000E+00  0.00000000E+00  0.00000000E+00
  0.00000000E+00  0.00000000E+00  0.00000000E+00
  0.00000000E+00  0.00000000E+00  0.00000000E+00
  0.00000000E+00  0.00000000E+00  0.00000000E+00
  0.00000000E+00  0.00000000E+00  0.00000000E+00
  0.00000000E+00  0.00000000E+00  0.00000000E+00
  0.00000000E+00  0.00000000E+00  0.00000000E+00
  0.00000000E+00  0.00000000E+00  0.00000000E+00
  0.00000000E+00  0.00000000E+00  0.00000000E+00
  0.00000000E+00  0.00000000E+00  0.00000000E+00
  0.00000000E+00  0.00000000E+00  0.00000000E+00
  0.00000000E+00  0.00000000E+00  0.00000000E+00
  0.00000000E+00  0.00000000E+00  0.00000000E+00
  0.00000000E+00  0.00000000E+00  0.00000000E+00
  0.00000000E+00  0.00000000E+00  0.00000000E+00
  0.00000000E+00  0.00000000E+00  0.00000000E+00
  0.00000000E+00  0.00000000E+00  0.00000000E+00
  0.00000000E+00  0.00000000E+00  0.00000000E+00
  0.00000000E+00  0.00000000E+00  0.00000000E+00
  0.00000000E+00  0.00000000E+00  0.00000000E+00
  0.00000000E+00  0.00000000E+00  0.00000000E+00
  0.00000000E+00  0.00000000E+00  0.00000000E+00
  0.00000000E+00  0.00000000E+00  0.00000000E+00
  0.00000000E+00  0.00000000E+00  0.00000000E+00
  0.00000000E+00  0.00000000E+00  0.00000000E+00
  0.00000000E+00  0.00000000E+00  0.00000000E+00
  0.00000000E+00  0.00000000E+00  0.00000000E+00
  0.00000000E+00  0.00000000E+00  0.00000000E+00
  0.00000000E+00  0.00000000E+00  0.00000000E+00
  0.00000000E+00  0.00000000E+00  0.00000000E+00
  0.00000000E+00  0.00000000E+00  0.00000000E+00
  0.00000000E+00  0.00000000E+00  0.00000000E+00
  0.00000000E+00  0.00000000E+00  0.00000000E+00
  0.00000000E+00  0.00000000E+00  0.00000000E+00
  0.00000000E+00  0.00000000E+00  0.00000000E+00
  0.00000000E+00  0.00000000E+00  0.00000000E+00
  0.00000000E+00  0.00000000E+00  0.00000000E+00
  0.00000000E+00  0.00000000E+00  0.00000000E+00
  0.00000000E+00  0.00000000E+00  0.00000000E+00
  0.00000000E+00  0.00000000E+00  0.00000000E+00
  0.00000000E+00  0.00000000E+00  0.00000000E+00
  0.00000000E+00  0.00000000E+00  0.00000000E+00
  0.00000000E+00  0.00000000E+00  0.00000000E+00
  0.00000000E+00  0.00000000E+00  0.00000000E+00
  0.00000000E+00  0.00000000E+00  0.00000000E+00
  0.00000000E+00  0.00000000E+00  0.00000000E+00
  0.00000000E+00  0.00000000E+00  0.00000000E+00
  0.00000000E+00  0.00000000E+00  0.00000000E+00
  0.00000000E+00  0.00000000E+00  0.00000000E+00
  0.00000000E+00  0.00000000E+00  0.00000000E+00
  0.00000000E+00  0.00000000E+00  0.00000000E+00
  0.00000000E+00  0.00000000E+00  0.00000000E+00
  0.00000000E+00  0.00000000E+00  0.00000000E+00
  0.00000000E+00  0.00000000E+00  0.00000000E+00
  0.00000000E+00  0.00000000E+00  0.00000000E+00
  0.00000000E+00  0.00000000E+00  0.00000000E+00
  0.00000000E+00  0.00000000E+00  0.00000000E+00
  0.00000000E+00  0.00000000E+00  0.00000000E+00
  0.00000000E+00  0.00000000E+00  0.00000000E+00
  0.00000000E+00  0.00000000E+00  0.00000000E+00
  0.00000000E+00  0.00000000E+00  0.00000000E+00
  0.00000000E+00  0.00000000E+00  0.00000000E+00
  0.00000000E+00  0.00000000E+00  0.00000000E+00
  0.00000000E+00  0.00000000E+00  0.00000000E+00
  0.00000000E+00  0.00000000E+00  0.00000000E+00
  0.00000000E+00  0.00000000E+00  0.00000000E+00
  0.00000000E+00  0.00000000E+00  0.00000000E+00
  0.00000000E+00  0.00000000E+00  0.00000000E+00
  0.00000000E+00  0.00000000E+00  0.00000000E+00