GaN_ONH                                 
    1.000000000000000     
    15.8909244537000003    0.0000000000000000    0.0000000000000000
     0.0000000000000000   16.5143318175999987    0.0000000000000000
     0.0000000000000000    0.0000000000000000   15.4982528686999999
   Ga   N    O    H 
   180   179     1     1
Direct
  0.0997545374308775  0.0557675371496235  0.3333187528456446
  0.0995561109774055  0.0550006322939616  0.6670280096369596
  0.0998227612146626  0.0553628317010756  0.0001667046199832
  0.1001732793296597  0.3889941935732354  0.3336354651439236
  0.0999245853303115  0.3885594300639811  0.6668568397530146
  0.0998063879317070  0.3887382607597141  0.0003692026759577
  0.1000733766639759  0.7225287395019488  0.3328478640349638
  0.0999433092099956  0.7217355651421811  0.6663345303491294
  0.1000095817329612  0.7221210819070213  0.9993771683516290
  0.2999089442958844  0.0555044486473946  0.3334789576168756
  0.2998532153964740  0.0548938221238458  0.6669567449849717
  0.2999482747512253  0.0552601715821034  0.0002248340256170
  0.3003310984234666  0.3892117079853620  0.3347391408943817
  0.2979912905795045  0.3850953471004412  0.6707821573973309
  0.3000591808890401  0.3887143015300860  0.0001628678255467
  0.2997667128846980  0.7229063481030913  0.3334781583125550
  0.3003543724530534  0.7215711577465854  0.6653058215493474
  0.3000130796636530  0.7225069114859821  0.9983222354345478
  0.5000910695127576  0.0555044443383437  0.3334789672605393
  0.5001467604392010  0.0548938366736294  0.6669568855369471
  0.5000517126415340  0.0552601621058579  0.0002248894304994
  0.4996689008680271  0.3892116747340723  0.3347389075209473
  0.5020087552601199  0.3850956377480184  0.6707823893436118
  0.4999408258365496  0.3887143121479535  0.0001628776980335
  0.5002333191821353  0.7229063788556083  0.3334782412293040
  0.4996455984510572  0.7215711676964646  0.6653057201574427
  0.4999869434750049  0.7225068749629771  0.9983222414968913
  0.7002454482938686  0.0557675301494986  0.3333188192274886
  0.7004438870683930  0.0550006675594126  0.6670283420686205
  0.7001772524201665  0.0553628293474312  0.0001668488130993
  0.6998267287585875  0.3889941806777517  0.3336352672532881
  0.7000753950724196  0.3885594564620222  0.6668569356053504
  0.7001936381627449  0.3887382564174667  0.0003693474925253
  0.6999266095960717  0.7225287691861506  0.3328477189640787
  0.7000567070282551  0.7217355263413323  0.6663346560735700
  0.6999904229392595  0.7221210634135337  0.9993771630285981
  0.8999999921670252  0.0556875312035804  0.3334089059721603
  0.9000000042778069  0.0553001527836873  0.6668109866463757
  0.9000000075267565  0.0554152515670209  0.0001033594246077
  0.9000000055336699  0.3890626925402336  0.3333915353983107
  0.8999999817905362  0.3888331661000369  0.6667528050613660
  0.8999999951188471  0.3888902965846337  0.0000952597283093
  0.8999999848445555  0.7222505743661881  0.3328994299610055
  0.8999999991884167  0.7217902809646281  0.6664300269345556
  0.8999999998750781  0.7220729766665418  0.9997134214391434
  0.9999289883156042  0.2224298481702340  0.3335695230453758
  0.9998575750090781  0.2220817984390729  0.6669917025767576
  0.9999120262708837  0.2221346957388427  0.0002517149221894
  0.9999596919543344  0.5556306868855050  0.3331188357681883
  0.0002789289465688  0.5552900609170146  0.6662147162588438
  0.9999773327112018  0.5555161068612234  0.9996931670142354
  0.9999101415056086  0.8889617218164744  0.3331232324016926
  0.9998538666735102  0.8884009624301678  0.6666144023427252
  0.9999057910008444  0.8887198458533219  0.9998651745598515
  0.2000144088204202  0.2222433660236728  0.3335354625557234
  0.1992347830011456  0.2207004034158598  0.6675182356689036
  0.1997627057387327  0.2218829980767042  0.0007654025926549
  0.1999920485096189  0.5556375437334934  0.3316857116830482
  0.2009453609833595  0.5548817173672888  0.6657228480732134
  0.1996415816389145  0.5554150185226704  0.9990120307079751
  0.1996007558296101  0.8892933168130084  0.3330574342717534
  0.1998352186064836  0.8887418260265497  0.6668224220330276
  0.1998978038035440  0.8887363391984296  0.9995718009980620
  0.4000000250883886  0.2220760811979461  0.3339502248251801
  0.4000000097845842  0.2209887682395771  0.6677205791867304
  0.3999999899998485  0.2216650826446754  0.0010826585946712
  0.3999999825075022  0.5605805727908747  0.3217443946344725
  0.3999999641975904  0.5511386017019064  0.6640323310493096
  0.4000000434452531  0.5552942340142967  0.9992169926406229
  0.4000000188386252  0.8890688193626930  0.3329008102203659
  0.3999999772495499  0.8885110369453830  0.6660810298001557
  0.4000000110886788  0.8886930471291017  0.9996256281564398
  0.5999855685838065  0.2222433539016858  0.3335354079009182
  0.6007652160859890  0.2207004525815588  0.6675186904813402
  0.6002373031421746  0.2218829990415502  0.0007655835096536
  0.6000079495818889  0.5556375263239103  0.3316856290063205
  0.5990546978403392  0.5548816799706003  0.6657225050789155
  0.6003584119905199  0.5554150721457461  0.9990122493658349
  0.6003992684034044  0.8892933250174819  0.3330575785543766
  0.6001647526461340  0.8887418371756758  0.6668226123071920
  0.6001021974541564  0.8887363330492720  0.9995718901126408
  0.8000710208050190  0.2224298428886278  0.3335695235781692
  0.8001424091155753  0.2220818207597001  0.6669918315107979
  0.8000879751153610  0.2221347054688373  0.0002517943670845
  0.8000403246387683  0.5556306794756527  0.3331187826854377
  0.7997210417590019  0.5552900530492317  0.6662146330632209
  0.8000226467627718  0.5555161208773539  0.9996931880869221
  0.8000898341567366  0.8889617299251952  0.3331232314490395
  0.8001461554253537  0.8884009560392337  0.6666145430145975
  0.8000942245434262  0.8887198387905484  0.9998652373036172
  0.0998749165144186  0.2778231008607063  0.1671402475876068
  0.1000171536461067  0.2779591010258587  0.5002899121899259
  0.0999063169431237  0.2775619483698335  0.8337765518105432
  0.0997236550186580  0.6112962067992777  0.1662570096375657
  0.1008992058143734  0.6111666086679658  0.4992142829923056
  0.1001723903263590  0.6108653075148077  0.8325682973281692
  0.0998230463440914  0.9445909048228052  0.1665319237399634
  0.0988793941659423  0.9453955411171993  0.5000343856229307
  0.0998403568012269  0.9441292656374609  0.8333640805636110
  0.3000247169091624  0.2778620186932587  0.1673402070823155
  0.2990249693288159  0.2749416935069525  0.5010047702665683
  0.2997046282579073  0.2764095879508656  0.8350973850548448
  0.2985026144695645  0.6123244378807756  0.1631245362708835
  0.2983128124724072  0.6171391663519116  0.4974889645089988
  0.3004935828203221  0.6104656602430957  0.8322551058449875
  0.2999045187047154  0.9444397769152815  0.1665068613856770
  0.2996347988337338  0.9447501453019904  0.4997825532731143
  0.3000561325550004  0.9440679457406322  0.8332279137852627
  0.4999752894083626  0.2778620142175429  0.1673401546620892
  0.5009750758082097  0.2749417281823688  0.5010051611823836
  0.5002953751608590  0.2764096088171396  0.8350975985552301
  0.5014973752042217  0.6123245267565837  0.1631249320701098
  0.5016871702589571  0.6171392911699342  0.4974891453532664
  0.4995064673410506  0.6104656512026615  0.8322549277963361
  0.5000955134127444  0.9444397740233157  0.1665068702040595
  0.5003652319797164  0.9447501453147731  0.4997826992729061
  0.4999438672266186  0.9440679402303946  0.8332279724108933
  0.7001250793756574  0.2778230971282538  0.1671402479937743
  0.6999828060649237  0.2779590902396069  0.5002899132469719
  0.7000937123685023  0.2775619835319432  0.8337767318696326
  0.7002763346439158  0.6112962132022554  0.1662570362987989
  0.6991008014408405  0.6111665946731587  0.4992139861575639
  0.6998275743769730  0.6108652725163431  0.8325683191603834
  0.7001769529461163  0.9445908940181431  0.1665319424102909
  0.7011206085037558  0.9453955332986712  0.5000348384057943
  0.7001596494860859  0.9441292552755167  0.8333643048152256
  0.8999999964378844  0.2779154132924406  0.1668958383665481
  0.8999999853888099  0.2782613594168543  0.5001983896839270
  0.9000000030940001  0.2777445327216748  0.8335374571941916
  0.8999999887337964  0.6111715950067094  0.1664817181708906
  0.9000000074351533  0.6109459947883211  0.4996379017354654
  0.8999999745197442  0.6108999665127915  0.8329212388128213
  0.9000000046945260  0.9444961815821480  0.1666693594511563
  0.8999999890950292  0.9445681019441486  0.4998943820226421
  0.8999999994584726  0.9442346097030717  0.8332802548429723
  0.9998908636407456  0.1112263812256849  0.1668564342619022
  0.9996788600881366  0.1116859477629456  0.5001688840280686
  0.9999025329321940  0.1109771405877615  0.8335473517215538
  0.9999907613668501  0.4445588259435385  0.1667858322057193
  0.0003315716491732  0.4445026570636029  0.4999210567222563
  0.9999301747478639  0.4443618193478874  0.8332902189065874
  0.9999734158815773  0.7778482057514281  0.1663772537162646
  0.9995568668232852  0.7776320463820899  0.4996515141489491
  0.9999523630916768  0.7774987379565795  0.8330846641769660
  0.1999361805568625  0.1110643427992525  0.1669578070846441
  0.1993902603003941  0.1104468336669585  0.5002345204556313
  0.1998006027785788  0.1104852016248812  0.8338482927078491
  0.2000326779389290  0.4444833295166324  0.1666476641537690
  0.2014578834653184  0.4442376832841895  0.5006163837103587
  0.1994321236017829  0.4442212987916745  0.8340531032044138
  0.1998370410273719  0.7781828359811727  0.1661656959776837
  0.1973731129517524  0.7810042777624336  0.5003853576398279
  0.2000236690298711  0.7774077036231619  0.8323373119468155
  0.4000000118100857  0.1109673886761942  0.1671464339768247
  0.4000000092414808  0.1103113108118698  0.5004245033196296
  0.3999999894347539  0.1104956314086083  0.8337885474892806
  0.3999999924663129  0.4448572031521415  0.1669069723901530
  0.4000000241782118  0.4321866642498873  0.5097499236720469
  0.4000000022060490  0.4435005321235386  0.8328863221917389
  0.4000000228459939  0.7778789918177984  0.1661375031448087
  0.3999999815814803  0.7791443114630352  0.4984390063623511
  0.4000000064270495  0.7774125456196558  0.8318940787845240
  0.6000638218844031  0.1110643312744980  0.1669577756412806
  0.6006097660378946  0.1104468492474696  0.5002347984419124
  0.6001994002974432  0.1104851971934251  0.8338485466207931
  0.5999673153932926  0.4444833354855324  0.1666475564835443
  0.5985421051012930  0.4442376606330534  0.5006159268887488
  0.6005679059904150  0.4442213382346691  0.8340534741262315
  0.6001629763039635  0.7781828470266945  0.1661656864165567
  0.6026269093206972  0.7810042286253339  0.5003857324963471
  0.5999763353956988  0.7774076718955103  0.8323374300166645
  0.8001091456844712  0.1112263810296959  0.1668564472421466
  0.8003211189594333  0.1116859445042687  0.5001690299758842
  0.8000975073320076  0.1109771548139071  0.8335474827312174
  0.8000092439922238  0.4445588404584274  0.1667857850464863
  0.7996684319632943  0.4445026484107982  0.4999209467598918
  0.8000698108482027  0.4443618240936947  0.8332903226293706
  0.8000265943213943  0.7778482025723675  0.1663771925760730
  0.8004431306286987  0.7776320560768700  0.4996516184065650
  0.8000476349683397  0.7774987273367865  0.8330847627907338
  0.0999254512530876  0.0557704357160536  0.1256625662624191
  0.0991948310669643  0.0560967440079348  0.4589552013509906
  0.0996707171842853  0.0551869430125280  0.7926022297340780
  0.0999993783471881  0.3888521694831878  0.1259700602938895
  0.1007707723873576  0.3893153958404021  0.4593367940222806
  0.0996462646940277  0.3885922187637604  0.7924825888027949
  0.1000302824833369  0.7222823620673009  0.1249565627867450
  0.0995952438524084  0.7223573181680486  0.4586546578047804
  0.0997386220876759  0.7219464198874040  0.7918583648198564
  0.3000035057020310  0.0556426027467891  0.1258558923875364
  0.2997322218826866  0.0557797123433583  0.4590441104797127
  0.2998328104028731  0.0551865780670551  0.7925800374467500
  0.3002380943199370  0.3890351321497408  0.1262608089482827
  0.2995296090084606  0.3856828508221122  0.4600872600042553
  0.2986913367836784  0.3873897021236264  0.7955569808930355
  0.2998821488490547  0.7233762942830779  0.1237305650085282
  0.2961806570215413  0.7287977092624390  0.4589428065907937
  0.2998942547149872  0.7216621131001094  0.7910423554287679
  0.4999965260674545  0.0556426027270289  0.1258558847347282
  0.5002678127641561  0.0557796960275705  0.4590441589240830
  0.5001672558571242  0.0551865693433738  0.7925800595056700
  0.4997619161848519  0.3890351358252931  0.1262607876153668
  0.5004703349946726  0.3856828065385451  0.4600872007078723
  0.5013086997792777  0.3873896882416677  0.7955571298744636
  0.5001178776033613  0.7233762788447251  0.1237305994474262
  0.5038193812318527  0.7287977290839595  0.4589428874262849
  0.5001057746154680  0.7216621378826037  0.7910422633878188
  0.7000745613183574  0.0557704326522502  0.1256625676402680
  0.7008051678504429  0.0560967107293745  0.4589553219139635
  0.7003292771859538  0.0551869327949518  0.7926023166329643
  0.7000006106839193  0.3888521443088221  0.1259701009253096
  0.6992292697072802  0.3893153824039466  0.4593366791628839
  0.7003537266980639  0.3885921938461138  0.7924826486033647
  0.6999697377201187  0.7222823398248193  0.1249565777824652
  0.7004047498590156  0.7223573251343872  0.4586546602610343
  0.7002613653882310  0.7219464670135186  0.7918583748407614
  0.8999999867688189  0.0556639136677790  0.1255580251550582
  0.8999999842824309  0.0558376978478772  0.4591912219022239
  0.8999999752615295  0.0553231767873693  0.7924530267991388
  0.8999999874128974  0.3889959023816454  0.1256698462241550
  0.8999999998311452  0.3893236616408959  0.4590949454539765
  0.8999999882444456  0.3887835892723125  0.7923654269994681
  0.8999999954208917  0.7221888313472522  0.1251836302960987
  0.8999999807875696  0.7218855568963418  0.4586404036570104
  0.8999999820917353  0.7219797742823609  0.7920402987646326
  0.9999759536588350  0.2223726441959306  0.1257932998123459
  0.9998732966582061  0.2228145081275896  0.4592471935852130
  0.9998589356753996  0.2220389362071530  0.7926149663722425
  0.9999056412244530  0.5555359651439701  0.1252694463384622
  0.0005989627860556  0.5555777516051467  0.4588720354071192
 -0.0000167382044888  0.5553845089562564  0.7918641435126964
  0.9999628741835618  0.8889509812894051  0.1252883054213758
  0.9997399997039412  0.8888147293812733  0.4589355573907454
  0.9998661294654686  0.8885750998121814  0.7922452086372067
  0.1999837821421204  0.2223256239986953  0.1263828427058665
  0.1990898634554528  0.2212175319047095  0.4590578813823492
  0.1995452259477581  0.2214598587628951  0.7930794889672973
  0.1991566921433249  0.5552318848296173  0.1243682099094974
  0.2025292462873133  0.5554792093810057  0.4576923670982821
  0.2001413396559283  0.5551640724420421  0.7915047707118024
  0.1998656383992440  0.8892230878928310  0.1251198101531296
  0.1987022343417464  0.8912518853047189  0.4586566457844249
  0.1998318376852685  0.8887864171115377  0.7923052550462809
  0.4000000121189728  0.2221543038075407  0.1266811061826948
  0.4000000270130784  0.2212864765324723  0.4595586554083841
  0.4000000300108866  0.2216670990634594  0.7933304491110502
  0.4000000312601628  0.5560846844407639  0.1253725090506135
  0.3999999859070300  0.5545783805955694  0.7907446847659864
  0.4000000073931886  0.8890643380264790  0.1253217691493909
  0.4000000228116889  0.8904275707638931  0.4584341236719082
  0.4000000219407411  0.8887087924586525  0.7917216013878645
  0.6000162297271237  0.2223256192014589  0.1263828785254627
  0.6009101146894221  0.2212175064136975  0.4590579121810159
  0.6004547917299384  0.2214598437614123  0.7930796348922547
  0.6008432679761112  0.5552318953069678  0.1243683457516971
  0.5974707028768185  0.5554792814449321  0.4576922995613870
  0.5998586598567147  0.5551640396559732  0.7915046334096505
  0.6001343894372455  0.8892230895930106  0.1251198241949462
  0.6012978206171185  0.8912518259007456  0.4586568142981186
  0.6001682147008561  0.8887864222401073  0.7923052748051883
  0.8000240220455460  0.2223726472089587  0.1257933041208994
  0.8001266944071282  0.2228145030898771  0.4592472105269392
  0.8001410531090997  0.2220389347119437  0.7926149891941433
  0.8000943320015265  0.5555359533089713  0.1252694611329780
  0.7994010368673673  0.5555777447765183  0.4588719918592908
  0.8000167394708579  0.5553844968433856  0.7918641059264920
  0.8000371299663460  0.8889509798114336  0.1252883142436449
  0.8002599673377585  0.8888147286606692  0.4589356236177480
  0.8001337969415924  0.8885751177923232  0.7922452380914413
  0.1001050167620833  0.2779222621376445  0.2927265601398355
  0.0999134431790534  0.2773621460638380  0.6259302819374024
  0.0999172430186919  0.2776218494132023  0.9594385230836422
  0.0997441708587593  0.6111778890876157  0.2919825426520046
  0.1006214585488502  0.6105507991571808  0.6249125880792477
  0.0997699899533825  0.6110730767421040  0.9581757602275347
  0.0997661623758908  0.9448550111814179  0.2920312281746897
  0.0996046583350196  0.9440891670383522  0.6257420714405378
  0.0998070343471260  0.9443353119010701  0.9588783171139120
  0.3003060742216146  0.2782276627259066  0.2930179189236201
  0.2992520599519230  0.2752144272569794  0.6264487398709788
  0.2999391862497234  0.2771337912442777  0.9605754686146617
  0.2970087144640039  0.6129256794069937  0.2876376311976270
  0.3013232904470449  0.6100912065248234  0.6225399217533162
  0.2999292094080772  0.6109751645102663  0.9582620721101359
  0.2999152057940410  0.9445744573977277  0.2921029597342403
  0.2997903558216244  0.9439496738730919  0.6253997522368417
  0.2999548089153231  0.9442501625613441  0.9588814031132357
  0.4996939563807689  0.2782276390559517  0.2930178845230915
  0.5007479775840076  0.2752145147971234  0.6264489393549282
  0.5000608385290233  0.2771337814481671  0.9605755200192951
  0.5029913198809149  0.6129256947397244  0.2876378081345632
  0.4986766910249464  0.6100912108662466  0.6225399240969988
  0.5000708050096634  0.6109751544838191  0.9582620001856251
  0.5000848292979779  0.9445744590597582  0.2921030009222285
  0.5002096730879481  0.9439496860463588  0.6253998203369628
  0.5000452235574362  0.9442501727349305  0.9588813825090524
  0.6998949761425620  0.2779222718200256  0.2927265657509915
  0.7000865363658965  0.2773621085651867  0.6259303306818278
  0.7000827492723856  0.2776218440579625  0.9594385350599821
  0.7002558055856164  0.6111778883890741  0.2919825821437567
  0.6993785476951621  0.6105508421995363  0.6249124362797502
  0.7002299950757847  0.6110730738977233  0.9581757577531407
  0.7002338249383462  0.9448550298730688  0.2920312663597892
  0.7003953091248701  0.9440891801467999  0.6257422865040462
  0.7001929723171864  0.9443353378045308  0.9588783229222223
  0.8999999790433861  0.2780157204088633  0.2924713458004438
  0.8999999710064372  0.2777434139176045  0.6258652663359279
  0.8999999777999506  0.2777656142334768  0.9591419939074680
  0.8999999782848889  0.6109883518918143  0.2921169263952382
  0.9000000066902913  0.6107074350498383  0.6253447547573993
  0.8999999955168647  0.6109926411373198  0.9585230647343244
  0.8999999851550271  0.9446714179290226  0.2922299772503669
  0.8999999709500059  0.9442148326430909  0.6257196202974989
  0.8999999845374091  0.9443772643304783  0.9587822124019129
  0.9999303226836875  0.1114837427891970  0.2924069944165062
  0.9998423032212413  0.1110148186587902  0.6258977447457441
  0.9999069192194139  0.1110590457424169  0.9591011857823368
  0.0001859921251194  0.4444251748302243  0.2924236824101329
  0.0000572477892535  0.4441628706664796  0.6255404578041663
  0.9999467135090011  0.4443577311881236  0.9589492195629133
  0.9999783537744377  0.7778401132717346  0.2919536213999025
  0.9998920840268759  0.7773333339085600  0.6254281097126508
  0.9999145779289370  0.7776713311920572  0.9585961580085719
  0.2000720059601167  0.1112211569148571  0.2925024633474207
  0.1995252570509243  0.1099614911282435  0.6258270851301004
  0.1998514028036604  0.1108157216771709  0.9594777085531976
  0.2004502025730511  0.4442100180269986  0.2924958487870453
  0.2005614923202635  0.4434239092689367  0.6260723674642465
  0.1997034090216088  0.4441606538752310  0.9595369389586947
  0.1997001541475810  0.7784541280995516  0.2915676529436391
  0.1995726694692587  0.7776756531796231  0.6258968161733010
  0.1997394678092549  0.7777750802787550  0.9579667487331143
  0.4000000173023182  0.1111047540883239  0.2927143402283594
  0.4000000098244314  0.1100524891210461  0.6259504756227274
  0.4000000151601597  0.1107179418861875  0.9595093803137601
  0.4000000009815281  0.4465344533652905  0.2944554237620365
  0.3999999916433481  0.4359517157215394  0.6356445074657654
  0.4000000155837284  0.4441433688160776  0.9591225857612160
  0.4000000353272455  0.7778397331820095  0.2918178910710704
  0.4000000037071914  0.7775584778249027  0.6244152998721265
  0.4000000058560929  0.7778956937507779  0.9575353238759288
  0.5999280005604388  0.1112211697814004  0.2925024772186005
  0.6004747737010214  0.1099614894207240  0.6258272536139655
  0.6001486403640462  0.1108157289820690  0.9594777362684073
  0.5995498230411519  0.4442100354194292  0.2924958204804225
  0.5994385393908012  0.4434238994042587  0.6260722044526690
  0.6002966225316445  0.4441606539486798  0.9595370756919221
  0.6002998440961179  0.7784541484549454  0.2915677231044478
  0.6004273543924902  0.7776756846029137  0.6258969475282812
  0.6002605366278686  0.7777751128302667  0.9579667312760527
  0.8000696575014825  0.1114837524570546  0.2924070182969665
  0.8001576367414402  0.1110148067112841  0.6258978385011120
  0.8000930464462985  0.1110590430582565  0.9591012014301008
  0.7998139913959493  0.4444251957795465  0.2924236726297537
  0.7999427492767990  0.4441628447293249  0.6255403994128372
  0.8000532712670353  0.4443577231676735  0.9589492236428284
  0.8000216235516150  0.7778401144162840  0.2919536241354068
  0.8001078706610010  0.7773333612385134  0.6254281682341229
  0.8000854472087832  0.7776713497549791  0.9585961589559243
  0.4000000440698130  0.6081869936665846  0.4311926484157153
  0.4000000024356112  0.5240511587567647  0.5093789533200092
 
  0.00000000E+00  0.00000000E+00  0.00000000E+00
  0.00000000E+00  0.00000000E+00  0.00000000E+00
  0.00000000E+00  0.00000000E+00  0.00000000E+00
  0.00000000E+00  0.00000000E+00  0.00000000E+00
  0.00000000E+00  0.00000000E+00  0.00000000E+00
  0.00000000E+00  0.00000000E+00  0.00000000E+00
  0.00000000E+00  0.00000000E+00  0.00000000E+00
  0.00000000E+00  0.00000000E+00  0.00000000E+00
  0.00000000E+00  0.00000000E+00  0.00000000E+00
  0.00000000E+00  0.00000000E+00  0.00000000E+00
  0.00000000E+00  0.00000000E+00  0.00000000E+00
  0.00000000E+00  0.00000000E+00  0.00000000E+00
  0.00000000E+00  0.00000000E+00  0.00000000E+00
  0.00000000E+00  0.00000000E+00  0.00000000E+00
  0.00000000E+00  0.00000000E+00  0.00000000E+00
  0.00000000E+00  0.00000000E+00  0.00000000E+00
  0.00000000E+00  0.00000000E+00  0.00000000E+00
  0.00000000E+00  0.00000000E+00  0.00000000E+00
  0.00000000E+00  0.00000000E+00  0.00000000E+00
  0.00000000E+00  0.00000000E+00  0.00000000E+00
  0.00000000E+00  0.00000000E+00  0.00000000E+00
  0.00000000E+00  0.00000000E+00  0.00000000E+00
  0.00000000E+00  0.00000000E+00  0.00000000E+00
  0.00000000E+00  0.00000000E+00  0.00000000E+00
  0.00000000E+00  0.00000000E+00  0.00000000E+00
  0.00000000E+00  0.00000000E+00  0.00000000E+00
  0.00000000E+00  0.00000000E+00  0.00000000E+00
  0.00000000E+00  0.00000000E+00  0.00000000E+00
  0.00000000E+00  0.00000000E+00  0.00000000E+00
  0.00000000E+00  0.00000000E+00  0.00000000E+00
  0.00000000E+00  0.00000000E+00  0.00000000E+00
  0.00000000E+00  0.00000000E+00  0.00000000E+00
  0.00000000E+00  0.00000000E+00  0.00000000E+00
  0.00000000E+00  0.00000000E+00  0.00000000E+00
  0.00000000E+00  0.00000000E+00  0.00000000E+00
  0.00000000E+00  0.00000000E+00  0.00000000E+00
  0.00000000E+00  0.00000000E+00  0.00000000E+00
  0.00000000E+00  0.00000000E+00  0.00000000E+00
  0.00000000E+00  0.00000000E+00  0.00000000E+00
  0.00000000E+00  0.00000000E+00  0.00000000E+00
  0.00000000E+00  0.00000000E+00  0.00000000E+00
  0.00000000E+00  0.00000000E+00  0.00000000E+00
  0.00000000E+00  0.00000000E+00  0.00000000E+00
  0.00000000E+00  0.00000000E+00  0.00000000E+00
  0.00000000E+00  0.00000000E+00  0.00000000E+00
  0.00000000E+00  0.00000000E+00  0.00000000E+00
  0.00000000E+00  0.00000000E+00  0.00000000E+00
  0.00000000E+00  0.00000000E+00  0.00000000E+00
  0.00000000E+00  0.00000000E+00  0.00000000E+00
  0.00000000E+00  0.00000000E+00  0.00000000E+00
  0.00000000E+00  0.00000000E+00  0.00000000E+00
  0.00000000E+00  0.00000000E+00  0.00000000E+00
  0.00000000E+00  0.00000000E+00  0.00000000E+00
  0.00000000E+00  0.00000000E+00  0.00000000E+00
  0.00000000E+00  0.00000000E+00  0.00000000E+00
  0.00000000E+00  0.00000000E+00  0.00000000E+00
  0.00000000E+00  0.00000000E+00  0.00000000E+00
  0.00000000E+00  0.00000000E+00  0.00000000E+00
  0.00000000E+00  0.00000000E+00  0.00000000E+00
  0.00000000E+00  0.00000000E+00  0.00000000E+00
  0.00000000E+00  0.00000000E+00  0.00000000E+00
  0.00000000E+00  0.00000000E+00  0.00000000E+00
  0.00000000E+00  0.00000000E+00  0.00000000E+00
  0.00000000E+00  0.00000000E+00  0.00000000E+00
  0.00000000E+00  0.00000000E+00  0.00000000E+00
  0.00000000E+00  0.00000000E+00  0.00000000E+00
  0.00000000E+00  0.00000000E+00  0.00000000E+00
  0.00000000E+00  0.00000000E+00  0.00000000E+00
  0.00000000E+00  0.00000000E+00  0.00000000E+00
  0.00000000E+00  0.00000000E+00  0.00000000E+00
  0.00000000E+00  0.00000000E+00  0.00000000E+00
  0.00000000E+00  0.00000000E+00  0.00000000E+00
  0.00000000E+00  0.00000000E+00  0.00000000E+00
  0.00000000E+00  0.00000000E+00  0.00000000E+00
  0.00000000E+00  0.00000000E+00  0.00000000E+00
  0.00000000E+00  0.00000000E+00  0.00000000E+00
  0.00000000E+00  0.00000000E+00  0.00000000E+00
  0.00000000E+00  0.00000000E+00  0.00000000E+00
  0.00000000E+00  0.00000000E+00  0.00000000E+00
  0.00000000E+00  0.00000000E+00  0.00000000E+00
  0.00000000E+00  0.00000000E+00  0.00000000E+00
  0.00000000E+00  0.00000000E+00  0.00000000E+00
  0.00000000E+00  0.00000000E+00  0.00000000E+00
  0.00000000E+00  0.00000000E+00  0.00000000E+00
  0.00000000E+00  0.00000000E+00  0.00000000E+00
  0.00000000E+00  0.00000000E+00  0.00000000E+00
  0.00000000E+00  0.00000000E+00  0.00000000E+00
  0.00000000E+00  0.00000000E+00  0.00000000E+00
  0.00000000E+00  0.00000000E+00  0.00000000E+00
  0.00000000E+00  0.00000000E+00  0.00000000E+00
  0.00000000E+00  0.00000000E+00  0.00000000E+00
  0.00000000E+00  0.00000000E+00  0.00000000E+00
  0.00000000E+00  0.00000000E+00  0.00000000E+00
  0.00000000E+00  0.00000000E+00  0.00000000E+00
  0.00000000E+00  0.00000000E+00  0.00000000E+00
  0.00000000E+00  0.00000000E+00  0.00000000E+00
  0.00000000E+00  0.00000000E+00  0.00000000E+00
  0.00000000E+00  0.00000000E+00  0.00000000E+00
  0.00000000E+00  0.00000000E+00  0.00000000E+00
  0.00000000E+00  0.00000000E+00  0.00000000E+00
  0.00000000E+00  0.00000000E+00  0.00000000E+00
  0.00000000E+00  0.00000000E+00  0.00000000E+00
  0.00000000E+00  0.00000000E+00  0.00000000E+00
  0.00000000E+00  0.00000000E+00  0.00000000E+00
  0.00000000E+00  0.00000000E+00  0.00000000E+00
  0.00000000E+00  0.00000000E+00  0.00000000E+00
  0.00000000E+00  0.00000000E+00  0.00000000E+00
  0.00000000E+00  0.00000000E+00  0.00000000E+00
  0.00000000E+00  0.00000000E+00  0.00000000E+00
  0.00000000E+00  0.00000000E+00  0.00000000E+00
  0.00000000E+00  0.00000000E+00  0.00000000E+00
  0.00000000E+00  0.00000000E+00  0.00000000E+00
  0.00000000E+00  0.00000000E+00  0.00000000E+00
  0.00000000E+00  0.00000000E+00  0.00000000E+00
  0.00000000E+00  0.00000000E+00  0.00000000E+00
  0.00000000E+00  0.00000000E+00  0.00000000E+00
  0.00000000E+00  0.00000000E+00  0.00000000E+00
  0.00000000E+00  0.00000000E+00  0.00000000E+00
  0.00000000E+00  0.00000000E+00  0.00000000E+00
  0.00000000E+00  0.00000000E+00  0.00000000E+00
  0.00000000E+00  0.00000000E+00  0.00000000E+00
  0.00000000E+00  0.00000000E+00  0.00000000E+00
  0.00000000E+00  0.00000000E+00  0.00000000E+00
  0.00000000E+00  0.00000000E+00  0.00000000E+00
  0.00000000E+00  0.00000000E+00  0.00000000E+00
  0.00000000E+00  0.00000000E+00  0.00000000E+00
  0.00000000E+00  0.00000000E+00  0.00000000E+00
  0.00000000E+00  0.00000000E+00  0.00000000E+00
  0.00000000E+00  0.00000000E+00  0.00000000E+00
  0.00000000E+00  0.00000000E+00  0.00000000E+00
  0.00000000E+00  0.00000000E+00  0.00000000E+00
  0.00000000E+00  0.00000000E+00  0.00000000E+00
  0.00000000E+00  0.00000000E+00  0.00000000E+00
  0.00000000E+00  0.00000000E+00  0.00000000E+00
  0.00000000E+00  0.00000000E+00  0.00000000E+00
  0.00000000E+00  0.00000000E+00  0.00000000E+00
  0.00000000E+00  0.00000000E+00  0.00000000E+00
  0.00000000E+00  0.00000000E+00  0.00000000E+00
  0.00000000E+00  0.00000000E+00  0.00000000E+00
  0.00000000E+00  0.00000000E+00  0.00000000E+00
  0.00000000E+00  0.00000000E+00  0.00000000E+00
  0.00000000E+00  0.00000000E+00  0.00000000E+00
  0.00000000E+00  0.00000000E+00  0.00000000E+00
  0.00000000E+00  0.00000000E+00  0.00000000E+00
  0.00000000E+00  0.00000000E+00  0.00000000E+00
  0.00000000E+00  0.00000000E+00  0.00000000E+00
  0.00000000E+00  0.00000000E+00  0.00000000E+00
  0.00000000E+00  0.00000000E+00  0.00000000E+00
  0.00000000E+00  0.00000000E+00  0.00000000E+00
  0.00000000E+00  0.00000000E+00  0.00000000E+00
  0.00000000E+00  0.00000000E+00  0.00000000E+00
  0.00000000E+00  0.00000000E+00  0.00000000E+00
  0.00000000E+00  0.00000000E+00  0.00000000E+00
  0.00000000E+00  0.00000000E+00  0.00000000E+00
  0.00000000E+00  0.00000000E+00  0.00000000E+00
  0.00000000E+00  0.00000000E+00  0.00000000E+00