GaN                                     
    1.000000000000000     
    15.8909244537000003    0.0000000000000000    0.0000000000000000
     0.0000000000000000   16.5143318175999987    0.0000000000000000
     0.0000000000000000    0.0000000000000000   15.4982528686999999
   Ga   N    H 
   179   180     1
Direct
  0.1000165084286444  0.0559030266946520  0.3332808529320408
  0.0999660415592634  0.0560900692600534  0.6667219125797365
  0.0998968472020706  0.0559103707785573  0.0002075568324909
  0.0997206438305622  0.3887493312713090  0.3330212707905171
  0.1000295478940783  0.3892245939938432  0.6664581965661035
  0.0998993211558171  0.3888854679671601 -0.0002130442372536
  0.0992381349120129  0.7218990916144555  0.3328099136762906
  0.0986068670828188  0.7219186953380655  0.6686658411635175
  0.0996505571958173  0.7221876826513287  0.0001041804202397
  0.3001359514021312  0.0555723499231085  0.3334449285357559
  0.2999242045574592  0.0560444102510883  0.6670171680778403
  0.3000368987688032  0.0559192504281584  0.0002827979286866
  0.3009090254667248  0.3890419344883996  0.3333294399155577
  0.3001750409826152  0.3893472685901472  0.6659853714071418
  0.3001403050434056  0.3889349832239835  0.9995111372996234
  0.2999430085511240  0.7192694425294097  0.3244372661751797
  0.2999299586727684  0.7230577359085216  0.6681034302616073
  0.3000522969633697  0.7222647714584821  0.0004002214141954
  0.4999653138001511  0.0555749287151933  0.3331233123728065
  0.5000288891561887  0.0558661556500379  0.6665707481858590
  0.5000888061515613  0.0557949517041719  0.0000142026633356
  0.5012268843076085  0.3887143115236765  0.3345969525954942
  0.5004593177894884  0.3895530579606615  0.6630805867001913
  0.5003603961343771  0.3889426800501757  0.9986284527637930
  0.5008523201790679  0.7208886915515282  0.3333440325268934
  0.5013840590105260  0.7219803896488655  0.6685767845391622
  0.5003983335659781  0.7220812712615847  0.0000058037504033
  0.6999427736251312  0.0556306687161992  0.3330762218496999
  0.6999351239780690  0.0557983583840811  0.6664002381913389
  0.7000134515533281  0.0557033176933554  0.9997297036173229
  0.6988139254875294  0.3889825153102389  0.3338783227896067
  0.6996124789741537  0.3892598516981287  0.6633910196144492
  0.6997592491419671  0.3889093081467526  0.9986638214570475
  0.7001120376010956  0.7211843005935501  0.3335954965513728
  0.7005613910123316  0.7224689007259524  0.6668154266592484
  0.7001449583687699  0.7220285589841113  0.0000747647181468
  0.8997538457413841  0.0558463891908184  0.3331416088990691
  0.9000079756899184  0.0559132217123044  0.6665629581243344
  0.8998743226812345  0.0557844323234946  0.9998749794674232
  0.8989947945744087  0.3889889067566794  0.3332818217946589
  0.8998186581209674  0.3889250586422152  0.6661336595473378
  0.8997978337304283  0.3888291610254825  0.9995104669005085
  0.8995745976443500  0.7220464764356093  0.3331734123701859
  0.8997046292142367  0.7222506178015540  0.6669929876265150
  0.8997962039759262  0.7221184104151742  0.0001500882039160
  0.9996611855181865  0.2224301072867093  0.3331571373194524
  0.9999180229548876  0.2226036073161811  0.6662526536764563
 -0.0001499968141268  0.2224118128973342  0.9997965848193375
  0.9994297882073910  0.5551958684308632  0.3330990885770832
  0.9995471141209841  0.5553851616897351  0.6668701048604780
  0.9997385211818912  0.5553483835856106 -0.0000047552237657
  0.9996607475832864  0.8890068681256732  0.3334050729173068
  0.9998184615627954  0.8892336727647716  0.6670137695012071
  0.9998342318275026  0.8891572832673774  0.0003326905904423
  0.2002577650670535  0.2225101376612876  0.3332266907520721
  0.2001382958331022  0.2227049055709683  0.6663279281733774
  0.2000244711675249  0.2224991765007701 -0.0000974395574946
  0.1993183178600196  0.5548669753070276  0.3323863729976155
  0.1996219516098269  0.5560906009489487  0.6670075111525332
  0.1997961604006493  0.5553232965317324 -0.0002433253895821
  0.1995566018770920  0.8887604766690279  0.3331229525253748
  0.1996484549350281  0.8898712282941108  0.6681560940743716
  0.1998964565093129  0.8892810442915904  0.0003837842925273
  0.4006868741895202  0.2226036543670824  0.3334328734656258
  0.4001133716764813  0.2225478163356552  0.6660118796441532
  0.4001024494409332  0.2224761837582073  0.9994951689456473
  0.4012771228227824  0.5546485574672665  0.3322911818469589
  0.4006787686126850  0.5560161978967244  0.6669629075827135
  0.4003697941886717  0.5553071384166641  0.9993387877798765
  0.4005016457871434  0.8884073340704749  0.3331038064739351
  0.4001892311183520  0.8900263051366498  0.6682260320007470
  0.4001235809111987  0.8891871783001534  0.0003726954965293
  0.5999408025101828  0.2222605388319315  0.3326886248988054
  0.5998337859649471  0.2225757970557170  0.6660685541592588
  0.6000234852484454  0.2223174962231350  0.9990022930097465
  0.6005193825414498  0.5532315496549598  0.3359470909805422
  0.6005682496755274  0.5557868929009758  0.6647529637021752
  0.6002497600984391  0.5551213605569274  0.9989940126168139
  0.6002847111227260  0.8884748384181778  0.3334304660190431
  0.6002210326962439  0.8890288383758519  0.6667769748938089
  0.6001621588910308  0.8890096420137236  0.0003031852567428
  0.7992505803208740  0.2226557075270510  0.3331901903680315
  0.7998091388257125  0.2223875346582832  0.6660053529909066
  0.7998945235918172  0.2223732527535794  0.9993448312039578
  0.7996124892296808  0.5551771616955640  0.3331227151712279
  0.7998920182759782  0.5555502853749762  0.6666353609480541
  0.7999134450742986  0.5553752396429343  0.9995081711516327
  0.7999121324131928  0.8887900401146330  0.3332966210385100
  0.8001018982375566  0.8892950414262983  0.6667479424517524
  0.7999681418499733  0.8889548129657922  0.0000387995612643
  0.0998616053863376  0.2778253334098671  0.1665233877895229
  0.1001307982173333  0.2782242645436124  0.4997254273714035
  0.0999812048423693  0.2779932497779088  0.8330635169449830
  0.0996372155276629  0.6109271031149579  0.1663566495473835
  0.0986537253411420  0.6108092597850246  0.5005837604630856
  0.0997783661551973  0.6110318506759210  0.8338538640651635
  0.0998058377590768  0.9447978925923349  0.1668566665610371
  0.0995204633032265  0.9453507297067307  0.5001309736906651
  0.0997359107723110  0.9449228445285239  0.8338475627858858
  0.3002214480710843  0.2779411657864905  0.1665740189757056
  0.3008271195202052  0.2785630779066415  0.4993396459265446
  0.3000501501646425  0.2780066438143004  0.8328197314670436
  0.3002308072916247  0.6098723948731684  0.1647357442230478
  0.3004771034985630  0.6078142847336510  0.5011969051065914
  0.3000404608765941  0.6113699311920372  0.8339364779799815
  0.3000868430696612  0.9446396228734075  0.1670346012359709
  0.2997961952036722  0.9445785037969072  0.5011924253574123
  0.2999536023206020  0.9449731420062205  0.8341462441686759
  0.5002530761552252  0.2778998312801308  0.1659132524003659
  0.5009032293556422  0.2789685364020161  0.4993365956616356
  0.4999449634865634  0.2781614764150203  0.8321353473825946
  0.5007155178029425  0.6106133879487099  0.1663727551659440
  0.5022486668252779  0.6089971597430591  0.5009231459381294
  0.5003419432250676  0.6112079202323151  0.8333731912529695
  0.5002208741743100  0.9446467779258789  0.1667986798542024
  0.5004368816213965  0.9447430654550425  0.4999883485165360
  0.5003003613528357  0.9448423112364212  0.8337782723604953
  0.6998011141036297  0.2779402090256113  0.1657907247530731
  0.6984753965138235  0.2781062132943083  0.4996352458995598
  0.7000247222869667  0.2780357113680187  0.8321722462858719
  0.6998240693155209  0.6106849109458951  0.1666098679706280
  0.6998802337204499  0.6096607755999940  0.5003840660754389
  0.7000673064284019  0.6113311886930209  0.8329582136192841
  0.7000484714192188  0.9446280712133032  0.1666702746867288
  0.7000892245528954  0.9445352111344136  0.4999049115547316
  0.7000523371998254  0.9447363070101747  0.8333074528257339
  0.8997099963193798  0.2779328821664419  0.1664458333927307
  0.8991205392788624  0.2780637774736302  0.4993826499879551
  0.8999124231977205  0.2779280965231821  0.8327710895218654
  0.8996461522833555  0.6109482259920533  0.1665620640692625
  0.8995669218937777  0.6109747185675699  0.5000073948717102
  0.8999296148754232  0.6111343984838267  0.8333862760227588
  0.8997832326716160  0.9447011249143942  0.1666903384283655
  0.8999466914094638  0.9449657681629431  0.5000209873639436
  0.8999473416550537  0.9448029584894788  0.8334350720697382
  0.9998114097485057  0.1113767598676447  0.1666053804295055
  0.9999129324847655  0.1117195232201407  0.4998027218908782
 -0.0000571969842760  0.1114685686021771  0.8332185646470264
  0.9996698579809377  0.4442857865899019  0.1664820530127445
  0.9994043157701294  0.4444441822822968  0.4999605834350319
 -0.0000828453744666  0.4444124305598793  0.8331480868302167
  0.9995400558093072  0.7779214629964625  0.1666515741883814
  0.9979749773310760  0.7781375103490846  0.5003899066704848
  0.9995534294949074  0.7781465256322058  0.8340260785007305
  0.2000471929656005  0.1114453098696563  0.1667579744978735
  0.2002051832078610  0.1116334364384316  0.4999606911320792
  0.1999349526229222  0.1115291282715765  0.8334413133800689
  0.1999947720477024  0.4440721183619178  0.1664463412674919
  0.2000618617085295  0.4449586323252405  0.4998757284869844
  0.2000857728510867  0.4445433120529116  0.8330377565290901
  0.1993476048044221  0.7779766206090243  0.1657152292791681
  0.1909671069916848  0.7787073180972613  0.5051192057861161
  0.1997837705105858  0.7781054142838024  0.8343231127266278
  0.4001054808553761  0.1114951500297225  0.1666751546472801
  0.3998556217650148  0.1110015648368744  0.4999822455292922
  0.4000473742143117  0.1114487496692323  0.8332436556446567
  0.4005430354950024  0.4440651215961269  0.1660043164886411
  0.4027206101327058  0.4449981103874960  0.4996062462277724
  0.4001429779395175  0.4444463349216765  0.8323314688297166
  0.4008538091488681  0.7777729577408168  0.1658791494311682
  0.4094200734406366  0.7786542068397964  0.5058214420216873
  0.4002030966955061  0.7781732600774115  0.8342378333893699
  0.6000495713871884  0.1113778050287414  0.1663303247550589
  0.5998320591565366  0.1111014181481304  0.4996515710804575
  0.6000120171697896  0.1113731189259748  0.8329238180191334
  0.6000679122295673  0.4442960005021093  0.1658805864069031
  0.6000523967109092  0.4446131965169179  0.8304419512675631
  0.6003747086776031  0.7776564603993713  0.1668404846373836
  0.6021679647197018  0.7771617064167768  0.5000380133521796
  0.6005037964381341  0.7781437506296266  0.8338697777544131
  0.7998422613029270  0.1114726934618578  0.1663796421687261
  0.7998308579025757  0.1110193715034782  0.4997586680393140
  0.7999643279251923  0.1113783207469682  0.8329506176754449
  0.7996238056258809  0.4443502716830285  0.1660564968922720
  0.7977430541896375  0.4450538237720355  0.4999540736586246
  0.7998594907449499  0.4443477551097300  0.8324365179949867
  0.7998263878363591  0.7777333965821267  0.1667141894917014
  0.8002236765011507  0.7781059938708159  0.5001397466134226
  0.8000612504449415  0.7780622439286078  0.8334947669298252
  0.1000018335768834  0.0557687867015552  0.1258856313201800
  0.1001604632846265  0.0559129308316461  0.4589568771348021
  0.1000300259427775  0.0557626480064401  0.7923348119487856
  0.0998808046430020  0.3889219440546255  0.1254611583161769
  0.1001166318244260  0.3896957492566550  0.4587739128696167
  0.1001025634126056  0.3891713809964586  0.7920616826071633
  0.0996035538594753  0.7221685709833665  0.1257252534944808
  0.0976518930906509  0.7215343570295747  0.4587888697674369
  0.0997685694732419  0.7224012543449407  0.7935727490292683
  0.2999937876368403  0.0556095773158211  0.1259625554225243
  0.2996941152233334  0.0547425990920104  0.4591694130111395
  0.2998565487082663  0.0557221823572564  0.7925599971496949
  0.3000131105279492  0.3889845400922756  0.1251751259999819
  0.2997219482615867  0.3902445861150074  0.4589386371482255
  0.2997820782052711  0.3891522263274902  0.7917021536897544
  0.2999899881644148  0.7220628280480720  0.1264006330908531
  0.2994988942898250  0.7312088645894945  0.4556923161980723
  0.2999085529245399  0.7227064357565793  0.7930850319049185
  0.4999270822432625  0.0555725908540582  0.1256579717910656
  0.4996554956738593  0.0550911609906894  0.4587945210617587
  0.4998922069411448  0.0556177214073647  0.7921947845961382
  0.5001487404619777  0.3888110120440783  0.1242110931929870
  0.4937391001689059  0.3850944002363871  0.4557922369984152
  0.4993978919653062  0.3889195402919630  0.7908560930521079
  0.5004061766473233  0.7220064987731346  0.1256017446350249
  0.5017055412918321  0.7216052062178976  0.4591207423408638
  0.5001368582569793  0.7227650302757479  0.7935200922596976
  0.6999952508836470  0.0555783623639835  0.1253614228405944
  0.6998627902519631  0.0552924820667624  0.4587413912537392
  0.7000110437941263  0.0556615720959119  0.7920653041306758
  0.6999412366429526  0.3888656272774859  0.1242469721899596
  0.7068512145327548  0.3841738478814207  0.4554602363056364
  0.7005334676499236  0.3887240513837046  0.7910491291268232
  0.7000774688699765  0.7220444414111876  0.1256408996506796
  0.7014812141710264  0.7224525571773204  0.4590727586202680
  0.7002224325623508  0.7227300109193331  0.7924542590301366
  0.8999447363194560  0.0556963409314807  0.1255295928461030
  0.9002705730089846  0.0557255330818223  0.4587921913545817
  0.9001127560354332  0.0557325227491690  0.7922024124300301
  0.8999216922099645  0.3888986454079315  0.1250967403793314
  0.8999514459475998  0.3892186837572950  0.4588434854274474
  0.9002496381718111  0.3889891414163842  0.7918576204584861
  0.8998798164709300  0.7221910378750834  0.1257238915793094
  0.8997120730188656  0.7221631920658113  0.4588471757150989
  0.9000778326090096  0.7223841806527842  0.7925531905080520
 -0.0001015906425805  0.2223559510982693  0.1254584006704740
  0.0000476818892738  0.2227419528955123  0.4588197552903161
  0.0001066768673672  0.2224206751567715  0.7919494282189787
 -0.0001804060231152  0.5554885554933455  0.1255778628711796
 -0.0001087301519284  0.5555097562587138  0.4588175505121940
  0.0001035348098364  0.5556868186961654  0.7923856591418015
 -0.0000211680655691  0.8890844259704473  0.1259517221031263
  0.0000867983326120  0.8890131123400331  0.4591602801551129
  0.0000668324248474  0.8890835293616833  0.7925680908930481
  0.2000153869167585  0.2224339157315618  0.1255901991658351
  0.2002453528215806  0.2226536660947377  0.4588903503962253
  0.1999436819913919  0.2224318448600889  0.7920209180689505
  0.1996099576344497  0.5553040411286495  0.1253702507112430
  0.2001248556912720  0.5579268115149063  0.4584606820759536
  0.2001296497430508  0.5561184255932448  0.7923105621145438
  0.1999484535216586  0.8891632205465118  0.1260806187130516
  0.1997624256784192  0.8877498745585025  0.4596253056152259
  0.1999144868666335  0.8891533450665686  0.7932883959702499
  0.3999304035509681  0.2223253627675532  0.1250897511734589
  0.3996854271652817  0.2212394114474022  0.4589183676862749
  0.3997691318596494  0.2222290730583013  0.7917977790172765
  0.4004825627326038  0.5553425003940179  0.1248775898419812
  0.3997083122774152  0.5578686983316344  0.4581729267972811
  0.3996881543933920  0.5562184056005750  0.7923060624162185
  0.4000176051416922  0.8889920622369596  0.1260710126014991
  0.3995917086515611  0.8875503848764430  0.4596601768815111
  0.3999229645881230  0.8892788626581604  0.7933249965376656
  0.5999919572596103  0.2220958246782278  0.1244811020989912
  0.5996085432001101  0.2212839922302910  0.4582622016721226
  0.5999217607071626  0.2222136878746240  0.7917904759561457
  0.6001856815460332  0.5553585337773621  0.1245187960256255
  0.6008086611527380  0.5618775106582751  0.4577961073374985
  0.6000482791067073  0.5567426551591326  0.7920853567131851
  0.6000169177668647  0.8888699473951276  0.1259179329577460
  0.5999909098612223  0.8885328009528212  0.4591661020868908
  0.5999787658644621  0.8891112537283458  0.7924024482015620
  0.8000105956101683  0.2223332927735358  0.1249071753568521
  0.7998816358691073  0.2214069551281715  0.4587208961737310
  0.8001633060322955  0.2222009217648190  0.7917462101640406
  0.7999552543940187  0.5555574865132131  0.1250586316782665
  0.8005603468003699  0.5557868646327012  0.4586466693046674
  0.8002016324001719  0.5557673490398406  0.7922855945506595
  0.7999886520273254  0.8888940772047090  0.1256770644537322
  0.8002779897178516  0.8892140271117766  0.4589708443861468
  0.8001111106803880  0.8891598472676626  0.7923915840544938
  0.0999589464699168  0.2776874510774782  0.2921972915435722
  0.1001047778376843  0.2781992940912536  0.6253672175089674
  0.0999588311703501  0.2778464029956589  0.9587404118519072
  0.0997584595582951  0.6109669711737759  0.2922037302651520
  0.0997646588836177  0.6115172790806322  0.6259699547046716
  0.0998732648268072  0.6111061216940673  0.9592556297417359
  0.0999865606672486  0.9444110411898387  0.2926848840077934
  0.1000428633594743  0.9446560591909211  0.6257838451892783
  0.0999132662784865  0.9446696683539764  0.9593854233135725
  0.3002267826954139  0.2778993829492901  0.2922131320223996
  0.2999695417209621  0.2782511235818705  0.6251681274193273
  0.2999282843717505  0.2778802898160316  0.9584970681311579
  0.3000067150124150  0.6087703236072525  0.2910533514747805
  0.2998600437850540  0.6129970954933779  0.6248055415929844
  0.2999072275561077  0.6112405319345309  0.9593835085606840
  0.3000287406056311  0.9438748704061298  0.2930394211911234
  0.2998257643056355  0.9443343664743913  0.6264549135749530
  0.2999770036929104  0.9446227070055589  0.9596085199423631
  0.5002484320583886  0.2774113531509831  0.2909260637863706
  0.4997785742818024  0.2775502293571331  0.6251156876750245
  0.4999528131222854  0.2777419180006547  0.9579449381942625
  0.5005751051642195  0.6103982622787166  0.2918195743902466
  0.4996444237782328  0.6121335824282506  0.6262045277235573
  0.5000534725036087  0.6112049071669978  0.9588585284236762
  0.4999925502581746  0.9440193108995737  0.2926037840754149
  0.4998860166140865  0.9443968726338525  0.6256706583683402
  0.5000805961651025  0.9445162977103533  0.9593180508583186
  0.6996278058906418  0.2775178812415913  0.2908939657604352
  0.6999557121897447  0.2772960879117917  0.6251839761248055
  0.7000323596667372  0.2776924792918989  0.9579529682798268
  0.6998355884796243  0.6105503737044263  0.2918591602768121
  0.7008332897993221  0.6120719286747800  0.6259529305261508
  0.7001515415924738  0.6112360110968417  0.9586246945819634
  0.6999602720599700  0.9443274187461632  0.2923023101926651
  0.7000130602585687  0.9445458295439032  0.6255795849347138
  0.7000152646266016  0.9444824201914950  0.9589485329152140
  0.8997541641702297  0.2778049509570056  0.2920556962648295
  0.9000004895255658  0.2778432828650307  0.6251753654251496
  0.9000258301157863  0.2777877808603529  0.9584289834977074
  0.8999262373136746  0.6111008132162353  0.2921565290137887
  0.9001824249336342  0.6113954356808766  0.6257025708258340
  0.9000903632742199  0.6111695770839689  0.9589305011369533
  0.8999423593062424  0.9445450017992616  0.2923407198042989
  0.9001954252331029  0.9447366869910911  0.6256561732779281
  0.8999960767054751  0.9445766906172781  0.9590543687621055
  0.0000235271775678  0.1111388194480550  0.2922601004985808
  0.0001185504854755  0.1113448545218744  0.6254483087455650
 -0.0000142465097601  0.1112433722435182  0.9588900318070217
  0.9997303723941968  0.4442550397227980  0.2921171932940574
  0.0001424372065627  0.4446329549439293  0.6255170215731926
 -0.0000051508528044  0.4444398725552308  0.9587539160885438
  0.9997976886372436  0.7778881622773338  0.2923854818150629
 -0.0000756196798993  0.7780531125793791  0.6259778491333747
 -0.0001650011883320  0.7780144187226801  0.9594731842403365
  0.2001562005473346  0.1111206174687541  0.2924431357532140
  0.2000364596824182  0.1113559194277541  0.6255987957903466
  0.1999645430631238  0.1112617571496576  0.9591096241868085
  0.1999942695623983  0.4441150844453184  0.2922369186586922
  0.1999298251951747  0.4454888622650279  0.6253841206250234
  0.1999325979096719  0.4444724105806632  0.9586437689054477
  0.1995688816866810  0.7773073541622882  0.2919885809322794
  0.1991244264584244  0.7779007674381730  0.6280428573546660
  0.1999373810419010  0.7779352244442264  0.9598171552064531
  0.3998888268528165  0.1110032676974744  0.2922817371628623
  0.3997870517175017  0.1109498139164465  0.6256332198361386
  0.3999829125826063  0.1111438375430613  0.9589068166790007
  0.4004041333705931  0.4442984226140286  0.2912388324903261
  0.3992651177072582  0.4457465580990485  0.6251148829446440
  0.3999403382682266  0.4444899962989458  0.9581038405093008
  0.4004176679195829  0.7769461094809096  0.2921204178740205
  0.4005133293243763  0.7781201283350054  0.6284253478344419
  0.4000129751129838  0.7779089798975657  0.9597469533618992
  0.5998635674513373  0.1107081050222355  0.2919038294372193
  0.5998567777463321  0.1110271143181626  0.6253587448517278
  0.5999829489893597  0.1109949096581138  0.9585399452900447
  0.5999468341447377  0.4440066597247700  0.2908045338706451
  0.6001587698818519  0.4456964035452273  0.6334976108178682
  0.6000282262446388  0.4444571233553479  0.9570053459964081
  0.6001172248354398  0.7774160590912794  0.2925120877437393
  0.6002163021271393  0.7779760293143695  0.6258305979766593
  0.6002101477186647  0.7779643241231822  0.9593461417558347
  0.7998925132309177  0.1112094568721074  0.2919713407621727
  0.8000579847397652  0.1109899648575471  0.6254237300201024
  0.7999938278227734  0.1111425593986711  0.9585875115691519
  0.7996714003664793  0.4444947293004805  0.2912616172723342
  0.8006085039828328  0.4448810266366205  0.6253694282375655
  0.8000717866517222  0.4444385050064895  0.9582271965205071
  0.7998388844978359  0.7777349420646102  0.2922586632727737
  0.8003801916977183  0.7783621536684103  0.6257860407571572
  0.8000517854727929  0.7778680453840419  0.9590803914360080
  0.3015245316594068  0.7919505019154160  0.4374021845590172
 
  0.00000000E+00  0.00000000E+00  0.00000000E+00
  0.00000000E+00  0.00000000E+00  0.00000000E+00
  0.00000000E+00  0.00000000E+00  0.00000000E+00
  0.00000000E+00  0.00000000E+00  0.00000000E+00
  0.00000000E+00  0.00000000E+00  0.00000000E+00
  0.00000000E+00  0.00000000E+00  0.00000000E+00
  0.00000000E+00  0.00000000E+00  0.00000000E+00
  0.00000000E+00  0.00000000E+00  0.00000000E+00
  0.00000000E+00  0.00000000E+00  0.00000000E+00
  0.00000000E+00  0.00000000E+00  0.00000000E+00
  0.00000000E+00  0.00000000E+00  0.00000000E+00
  0.00000000E+00  0.00000000E+00  0.00000000E+00
  0.00000000E+00  0.00000000E+00  0.00000000E+00
  0.00000000E+00  0.00000000E+00  0.00000000E+00
  0.00000000E+00  0.00000000E+00  0.00000000E+00
  0.00000000E+00  0.00000000E+00  0.00000000E+00
  0.00000000E+00  0.00000000E+00  0.00000000E+00
  0.00000000E+00  0.00000000E+00  0.00000000E+00
  0.00000000E+00  0.00000000E+00  0.00000000E+00
  0.00000000E+00  0.00000000E+00  0.00000000E+00
  0.00000000E+00  0.00000000E+00  0.00000000E+00
  0.00000000E+00  0.00000000E+00  0.00000000E+00
  0.00000000E+00  0.00000000E+00  0.00000000E+00
  0.00000000E+00  0.00000000E+00  0.00000000E+00
  0.00000000E+00  0.00000000E+00  0.00000000E+00
  0.00000000E+00  0.00000000E+00  0.00000000E+00
  0.00000000E+00  0.00000000E+00  0.00000000E+00
  0.00000000E+00  0.00000000E+00  0.00000000E+00
  0.00000000E+00  0.00000000E+00  0.00000000E+00
  0.00000000E+00  0.00000000E+00  0.00000000E+00
  0.00000000E+00  0.00000000E+00  0.00000000E+00
  0.00000000E+00  0.00000000E+00  0.00000000E+00
  0.00000000E+00  0.00000000E+00  0.00000000E+00
  0.00000000E+00  0.00000000E+00  0.00000000E+00
  0.00000000E+00  0.00000000E+00  0.00000000E+00
  0.00000000E+00  0.00000000E+00  0.00000000E+00
  0.00000000E+00  0.00000000E+00  0.00000000E+00
  0.00000000E+00  0.00000000E+00  0.00000000E+00
  0.00000000E+00  0.00000000E+00  0.00000000E+00
  0.00000000E+00  0.00000000E+00  0.00000000E+00
  0.00000000E+00  0.00000000E+00  0.00000000E+00
  0.00000000E+00  0.00000000E+00  0.00000000E+00
  0.00000000E+00  0.00000000E+00  0.00000000E+00
  0.00000000E+00  0.00000000E+00  0.00000000E+00
  0.00000000E+00  0.00000000E+00  0.00000000E+00
  0.00000000E+00  0.00000000E+00  0.00000000E+00
  0.00000000E+00  0.00000000E+00  0.00000000E+00
  0.00000000E+00  0.00000000E+00  0.00000000E+00
  0.00000000E+00  0.00000000E+00  0.00000000E+00
  0.00000000E+00  0.00000000E+00  0.00000000E+00
  0.00000000E+00  0.00000000E+00  0.00000000E+00
  0.00000000E+00  0.00000000E+00  0.00000000E+00
  0.00000000E+00  0.00000000E+00  0.00000000E+00
  0.00000000E+00  0.00000000E+00  0.00000000E+00
  0.00000000E+00  0.00000000E+00  0.00000000E+00
  0.00000000E+00  0.00000000E+00  0.00000000E+00
  0.00000000E+00  0.00000000E+00  0.00000000E+00
  0.00000000E+00  0.00000000E+00  0.00000000E+00
  0.00000000E+00  0.00000000E+00  0.00000000E+00
  0.00000000E+00  0.00000000E+00  0.00000000E+00
  0.00000000E+00  0.00000000E+00  0.00000000E+00
  0.00000000E+00  0.00000000E+00  0.00000000E+00
  0.00000000E+00  0.00000000E+00  0.00000000E+00
  0.00000000E+00  0.00000000E+00  0.00000000E+00
  0.00000000E+00  0.00000000E+00  0.00000000E+00
  0.00000000E+00  0.00000000E+00  0.00000000E+00
  0.00000000E+00  0.00000000E+00  0.00000000E+00
  0.00000000E+00  0.00000000E+00  0.00000000E+00
  0.00000000E+00  0.00000000E+00  0.00000000E+00
  0.00000000E+00  0.00000000E+00  0.00000000E+00
  0.00000000E+00  0.00000000E+00  0.00000000E+00
  0.00000000E+00  0.00000000E+00  0.00000000E+00
  0.00000000E+00  0.00000000E+00  0.00000000E+00
  0.00000000E+00  0.00000000E+00  0.00000000E+00
  0.00000000E+00  0.00000000E+00  0.00000000E+00
  0.00000000E+00  0.00000000E+00  0.00000000E+00
  0.00000000E+00  0.00000000E+00  0.00000000E+00
  0.00000000E+00  0.00000000E+00  0.00000000E+00
  0.00000000E+00  0.00000000E+00  0.00000000E+00
  0.00000000E+00  0.00000000E+00  0.00000000E+00
  0.00000000E+00  0.00000000E+00  0.00000000E+00
  0.00000000E+00  0.00000000E+00  0.00000000E+00
  0.00000000E+00  0.00000000E+00  0.00000000E+00
  0.00000000E+00  0.00000000E+00  0.00000000E+00
  0.00000000E+00  0.00000000E+00  0.00000000E+00
  0.00000000E+00  0.00000000E+00  0.00000000E+00
  0.00000000E+00  0.00000000E+00  0.00000000E+00
  0.00000000E+00  0.00000000E+00  0.00000000E+00
  0.00000000E+00  0.00000000E+00  0.00000000E+00
  0.00000000E+00  0.00000000E+00  0.00000000E+00
  0.00000000E+00  0.00000000E+00  0.00000000E+00
  0.00000000E+00  0.00000000E+00  0.00000000E+00
  0.00000000E+00  0.00000000E+00  0.00000000E+00
  0.00000000E+00  0.00000000E+00  0.00000000E+00
  0.00000000E+00  0.00000000E+00  0.00000000E+00
  0.00000000E+00  0.00000000E+00  0.00000000E+00
  0.00000000E+00  0.00000000E+00  0.00000000E+00
  0.00000000E+00  0.00000000E+00  0.00000000E+00
  0.00000000E+00  0.00000000E+00  0.00000000E+00
  0.00000000E+00  0.00000000E+00  0.00000000E+00
  0.00000000E+00  0.00000000E+00  0.00000000E+00
  0.00000000E+00  0.00000000E+00  0.00000000E+00
  0.00000000E+00  0.00000000E+00  0.00000000E+00
  0.00000000E+00  0.00000000E+00  0.00000000E+00
  0.00000000E+00  0.00000000E+00  0.00000000E+00
  0.00000000E+00  0.00000000E+00  0.00000000E+00
  0.00000000E+00  0.00000000E+00  0.00000000E+00
  0.00000000E+00  0.00000000E+00  0.00000000E+00
  0.00000000E+00  0.00000000E+00  0.00000000E+00
  0.00000000E+00  0.00000000E+00  0.00000000E+00
  0.00000000E+00  0.00000000E+00  0.00000000E+00
  0.00000000E+00  0.00000000E+00  0.00000000E+00
  0.00000000E+00  0.00000000E+00  0.00000000E+00
  0.00000000E+00  0.00000000E+00  0.00000000E+00
  0.00000000E+00  0.00000000E+00  0.00000000E+00
  0.00000000E+00  0.00000000E+00  0.00000000E+00
  0.00000000E+00  0.00000000E+00  0.00000000E+00
  0.00000000E+00  0.00000000E+00  0.00000000E+00
  0.00000000E+00  0.00000000E+00  0.00000000E+00
  0.00000000E+00  0.00000000E+00  0.00000000E+00
  0.00000000E+00  0.00000000E+00  0.00000000E+00
  0.00000000E+00  0.00000000E+00  0.00000000E+00
  0.00000000E+00  0.00000000E+00  0.00000000E+00
  0.00000000E+00  0.00000000E+00  0.00000000E+00
  0.00000000E+00  0.00000000E+00  0.00000000E+00
  0.00000000E+00  0.00000000E+00  0.00000000E+00
  0.00000000E+00  0.00000000E+00  0.00000000E+00
  0.00000000E+00  0.00000000E+00  0.00000000E+00
  0.00000000E+00  0.00000000E+00  0.00000000E+00
  0.00000000E+00  0.00000000E+00  0.00000000E+00
  0.00000000E+00  0.00000000E+00  0.00000000E+00
  0.00000000E+00  0.00000000E+00  0.00000000E+00
  0.00000000E+00  0.00000000E+00  0.00000000E+00
  0.00000000E+00  0.00000000E+00  0.00000000E+00
  0.00000000E+00  0.00000000E+00  0.00000000E+00
  0.00000000E+00  0.00000000E+00  0.00000000E+00
  0.00000000E+00  0.00000000E+00  0.00000000E+00
  0.00000000E+00  0.00000000E+00  0.00000000E+00
  0.00000000E+00  0.00000000E+00  0.00000000E+00
  0.00000000E+00  0.00000000E+00  0.00000000E+00
  0.00000000E+00  0.00000000E+00  0.00000000E+00
  0.00000000E+00  0.00000000E+00  0.00000000E+00
  0.00000000E+00  0.00000000E+00  0.00000000E+00
  0.00000000E+00  0.00000000E+00  0.00000000E+00
  0.00000000E+00  0.00000000E+00  0.00000000E+00
  0.00000000E+00  0.00000000E+00  0.00000000E+00
  0.00000000E+00  0.00000000E+00  0.00000000E+00
  0.00000000E+00  0.00000000E+00  0.00000000E+00
  0.00000000E+00  0.00000000E+00  0.00000000E+00
  0.00000000E+00  0.00000000E+00  0.00000000E+00
  0.00000000E+00  0.00000000E+00  0.00000000E+00
  0.00000000E+00  0.00000000E+00  0.00000000E+00
  0.00000000E+00  0.00000000E+00  0.00000000E+00
  0.00000000E+00  0.00000000E+00  0.00000000E+00
  0.00000000E+00  0.00000000E+00  0.00000000E+00
  0.00000000E+00  0.00000000E+00  0.00000000E+00
  0.00000000E+00  0.00000000E+00  0.00000000E+00