GaN                                     
    1.000000000000000     
    15.8909244537000003    0.0000000000000000    0.0000000000000000
     0.0000000000000000   16.5143318175999987    0.0000000000000000
     0.0000000000000000    0.0000000000000000   15.4982528686999999
   Ga   N    H 
   179   180     1
Direct
  0.1000165084286451  0.0559030266946507  0.3332808529320416
  0.0999660415592629  0.0560900692600512  0.6667219125797389
  0.0998968472020678  0.0559103707785553  0.0002075568324926
  0.0997206438305654  0.3887493312713061  0.3330212707905176
  0.1000295478940814  0.3892245939938448  0.6664581965661042
  0.0998993211558172  0.3888854679671567  0.9997869557627439
  0.0992381349120137  0.7218990916144535  0.3328099136762930
  0.0986068670828217  0.7219186953380685  0.6686658411635164
  0.0996505571958153  0.7221876826513309  0.0001041804202373
  0.3001359514021331  0.0555723499231107  0.3334449285357551
  0.2999242045574562  0.0560444102510900  0.6670171680778408
  0.3000368987688021  0.0559192504281611  0.0002827979286835
  0.3009090254667229  0.3890419344883966  0.3333294399155591
  0.3001750409826158  0.3893472685901500  0.6659853714071390
  0.3001403050434064  0.3889349832239831  0.9995111372996206
  0.2999430085511250  0.7192694425294094  0.3244372661751811
  0.2999299586727702  0.7230577359085190  0.6681034302616098
  0.3000522969633722  0.7222647714584838  0.0004002214141963
  0.4999653138001535  0.0555749287151954  0.3331233123728055
  0.5000288891561907  0.0558661556500368  0.6665707481858618
  0.5000888061515596  0.0557949517041720  0.0000142026633370
  0.5012268843076056  0.3887143115236782  0.3345969525954971
  0.5004593177894920  0.3895530579606615  0.6630805867001897
  0.5003603961343756  0.3889426800501781  0.9986284527637964
  0.5008523201790708  0.7208886915515295  0.3333440325268953
  0.5013840590105262  0.7219803896488628  0.6685767845391624
  0.5003983335659754  0.7220812712615868  0.0000058037504047
  0.6999427736251320  0.0556306687161978  0.3330762218497014
  0.6999351239780723  0.0557983583840809  0.6664002381913363
  0.7000134515533247  0.0557033176933572  0.9997297036173195
  0.6988139254875277  0.3889825153102393  0.3338783227896087
  0.6996124789741530  0.3892598516981280  0.6633910196144512
  0.6997592491419696  0.3889093081467507  0.9986638214570503
  0.7001120376010945  0.7211843005935492  0.3335954965513749
  0.7005613910123286  0.7224689007259498  0.6668154266592481
  0.7001449583687674  0.7220285589841139  0.0000747647181498
  0.8997538457413868  0.0558463891908190  0.3331416088990693
  0.9000079756899169  0.0559132217123022  0.6665629581243309
  0.8998743226812351  0.0557844323234917  0.9998749794674211
  0.8989947945744065  0.3889889067566799  0.3332818217946567
  0.8998186581209707  0.3889250586422151  0.6661336595473345
  0.8997978337304317  0.3888291610254839  0.9995104669005103
  0.8995745976443529  0.7220464764356080  0.3331734123701864
  0.8997046292142343  0.7222506178015565  0.6669929876265144
  0.8997962039759243  0.7221184104151775  0.0001500882039167
  0.9996611855181854  0.2224301072867121  0.3331571373194536
  0.9999180229548870  0.2226036073161808  0.6662526536764588
  0.9998500031858697  0.2224118128973345  0.9997965848193360
  0.9994297882073936  0.5551958684308643  0.3330990885770859
  0.9995471141209863  0.5553851616897347  0.6668701048604788
  0.9997385211818896  0.5553483835856100  0.9999952447762367
  0.9996607475832846  0.8890068681256763  0.3334050729173086
  0.9998184615627962  0.8892336727647745  0.6670137695012101
  0.9998342318274992  0.8891572832673800  0.0003326905904402
  0.2002577650670503  0.2225101376612884  0.3332266907520705
  0.2001382958330993  0.2227049055709713  0.6663279281733807
  0.2000244711675236  0.2224991765007687  0.9999025604425070
  0.1993183178600191  0.5548669753070286  0.3323863729976182
  0.1996219516098279  0.5560906009489485  0.6670075111525335
  0.1997961604006519  0.5553232965317320  0.9997566746104170
  0.1995566018770916  0.8887604766690275  0.3331229525253719
  0.1996484549350299  0.8898712282941118  0.6681560940743694
  0.1998964565093146  0.8892810442915932  0.0003837842925307
  0.4006868741895175  0.2226036543670844  0.3334328734656254
  0.4001133716764826  0.2225478163356556  0.6660118796441523
  0.4001024494409364  0.2224761837582108  0.9994951689456500
  0.4012771228227833  0.5546485574672673  0.3322911818469621
  0.4006787686126856  0.5560161978967243  0.6669629075827145
  0.4003697941886700  0.5553071384166657  0.9993387877798767
  0.4005016457871448  0.8884073340704717  0.3331038064739360
  0.4001892311183539  0.8900263051366508  0.6682260320007459
  0.4001235809111989  0.8891871783001549  0.0003726954965302
  0.5999408025101828  0.2222605388319323  0.3326886248988075
  0.5998337859649467  0.2225757970557183  0.6660685541592599
  0.6000234852484425  0.2223174962231340  0.9990022930097453
  0.6005193825414495  0.5532315496549601  0.3359470909805396
  0.6005682496755255  0.5557868929009756  0.6647529637021777
  0.6002497600984357  0.5551213605569245  0.9989940126168122
  0.6002847111227253  0.8884748384181763  0.3334304660190455
  0.6002210326962469  0.8890288383758502  0.6667769748938072
  0.6001621588910311  0.8890096420137252  0.0003031852567403
  0.7992505803208727  0.2226557075270534  0.3331901903680290
  0.7998091388257150  0.2223875346582815  0.6660053529909078
  0.7998945235918170  0.2223732527535774  0.9993448312039561
  0.7996124892296806  0.5551771616955605  0.3331227151712283
  0.7998920182759760  0.5555502853749772  0.6666353609480566
  0.7999134450742956  0.5553752396429346  0.9995081711516320
  0.7999121324131907  0.8887900401146354  0.3332966210385067
  0.8001018982375568  0.8892950414263012  0.6667479424517495
  0.7999681418499734  0.8889548129657924  0.0000387995612670
  0.0998616053863373  0.2778253334098650  0.1665233877895247
  0.1001307982173358  0.2782242645436099  0.4997254273714020
  0.0999812048423721  0.2779932497779072  0.8330635169449820
  0.0996372155276646  0.6109271031149603  0.1663566495473816
  0.0986537253411441  0.6108092597850215  0.5005837604630869
  0.0997783661551992  0.6110318506759213  0.8338538640651623
  0.0998058377590780  0.9447978925923336  0.1668566665610385
  0.0995204633032287  0.9453507297067320  0.5001309736906663
  0.0997359107723099  0.9449228445285270  0.8338475627858841
  0.3002214480710848  0.2779411657864870  0.1665740189757088
  0.3008271195202070  0.2785630779066395  0.4993396459265469
  0.3000501501646440  0.2780066438143010  0.8328197314670404
  0.3002308072916264  0.6098723948731718  0.1647357442230444
  0.3004771034985651  0.6078142847336493  0.5011969051065891
  0.3000404608765948  0.6113699311920370  0.8339364779799823
  0.3000868430696641  0.9446396228734102  0.1670346012359687
  0.2997961952036690  0.9445785037969046  0.5011924253574093
  0.2999536023205990  0.9449731420062193  0.8341462441686787
  0.5002530761552251  0.2778998312801307  0.1659132524003653
  0.5009032293556429  0.2789685364020187  0.4993365956616387
  0.4999449634865627  0.2781614764150220  0.8321353473825966
  0.5007155178029450  0.6106133879487102  0.1663727551659449
  0.5022486668252810  0.6089971597430617  0.5009231459381310
  0.5003419432250666  0.6112079202323173  0.8333731912529670
  0.5002208741743103  0.9446467779258826  0.1667986798542031
  0.5004368816213969  0.9447430654550431  0.4999883485165384
  0.5003003613528350  0.9448423112364209  0.8337782723604974
  0.6998011141036287  0.2779402090256085  0.1657907247530730
  0.6984753965138212  0.2781062132943078  0.4996352458995617
  0.7000247222869689  0.2780357113680196  0.8321722462858716
  0.6998240693155182  0.6106849109458921  0.1666098679706280
  0.6998802337204494  0.6096607755999913  0.5003840660754406
  0.7000673064284016  0.6113311886930219  0.8329582136192855
  0.7000484714192156  0.9446280712133017  0.1666702746867301
  0.7000892245528973  0.9445352111344150  0.4999049115547294
  0.7000523371998284  0.9447363070101744  0.8333074528257355
  0.8997099963193805  0.2779328821664394  0.1664458333927285
  0.8991205392788616  0.2780637774736335  0.4993826499879574
  0.8999124231977191  0.2779280965231833  0.8327710895218630
  0.8996461522833528  0.6109482259920541  0.1665620640692609
  0.8995669218937792  0.6109747185675686  0.5000073948717089
  0.8999296148754256  0.6111343984838271  0.8333862760227575
  0.8997832326716165  0.9447011249143954  0.1666903384283671
  0.8999466914094610  0.9449657681629448  0.5000209873639461
  0.8999473416550572  0.9448029584894756  0.8334350720697402
  0.9998114097485028  0.1113767598676461  0.1666053804295089
  0.9999129324847686  0.1117195232201382  0.4998027218908802
  0.9999428030157205  0.1114685686021772  0.8332185646470265
  0.9996698579809404  0.4442857865899014  0.1664820530127429
  0.9994043157701283  0.4444441822822967  0.4999605834350334
  0.9999171546255355  0.4444124305598791  0.8331480868302137
  0.9995400558093054  0.7779214629964599  0.1666515741883785
  0.9979749773310758  0.7781375103490831  0.5003899066704846
  0.9995534294949096  0.7781465256322091  0.8340260785007273
  0.2000471929655987  0.1114453098696586  0.1667579744978766
  0.2002051832078635  0.1116334364384315  0.4999606911320811
  0.1999349526229253  0.1115291282715773  0.8334413133800710
  0.1999947720477024  0.4440721183619161  0.1664463412674948
  0.2000618617085265  0.4449586323252390  0.4998757284869839
  0.2000857728510894  0.4445433120529145  0.8330377565290873
  0.1993476048044229  0.7779766206090244  0.1657152292791650
  0.1909671069916854  0.7787073180972613  0.5051192057861158
  0.1997837705105851  0.7781054142838002  0.8343231127266294
  0.4001054808553732  0.1114951500297252  0.1666751546472796
  0.3998556217650133  0.1110015648368758  0.4999822455292958
  0.4000473742143100  0.1114487496692291  0.8332436556446581
  0.4005430354950051  0.4440651215961253  0.1660043164886389
  0.4027206101327039  0.4449981103874947  0.4996062462277706
  0.4001429779395167  0.4444463349216790  0.8323314688297146
  0.4008538091488703  0.7777729577408152  0.1658791494311700
  0.4094200734406358  0.7786542068397964  0.5058214420216842
  0.4002030966955062  0.7781732600774093  0.8342378333893662
  0.6000495713871886  0.1113778050287380  0.1663303247550587
  0.5998320591565330  0.1111014181481309  0.4996515710804558
  0.6000120171697887  0.1113731189259752  0.8329238180191324
  0.6000679122295692  0.4442960005021064  0.1658805864069066
  0.6000523967109075  0.4446131965169187  0.8304419512675666
  0.6003747086776060  0.7776564603993704  0.1668404846373832
  0.6021679647197046  0.7771617064167771  0.5000380133521813
  0.6005037964381331  0.7781437506296243  0.8338697777544156
  0.7998422613029277  0.1114726934618560  0.1663796421687280
  0.7998308579025775  0.1110193715034811  0.4997586680393127
  0.7999643279251957  0.1113783207469652  0.8329506176754435
  0.7996238056258775  0.4443502716830282  0.1660564968922742
  0.7977430541896382  0.4450538237720352  0.4999540736586213
  0.7998594907449501  0.4443477551097317  0.8324365179949852
  0.7998263878363616  0.7777333965821284  0.1667141894916995
  0.8002236765011473  0.7781059938708169  0.5001397466134208
  0.8000612504449407  0.7780622439286090  0.8334947669298244
  0.1000018335768829  0.0557687867015559  0.1258856313201804
  0.1001604632846238  0.0559129308316457  0.4589568771348028
  0.1000300259427789  0.0557626480064428  0.7923348119487841
  0.0998808046430000  0.3889219440546228  0.1254611583161776
  0.1001166318244273  0.3896957492566529  0.4587739128696171
  0.1001025634126052  0.3891713809964585  0.7920616826071623
  0.0996035538594740  0.7221685709833635  0.1257252534944798
  0.0976518930906494  0.7215343570295757  0.4587888697674387
  0.0997685694732411  0.7224012543449375  0.7935727490292663
  0.2999937876368435  0.0556095773158205  0.1259625554225252
  0.2996941152233318  0.0547425990920090  0.4591694130111392
  0.2998565487082629  0.0557221823572576  0.7925599971496952
  0.3000131105279493  0.3889845400922737  0.1251751259999807
  0.2997219482615848  0.3902445861150099  0.4589386371482221
  0.2997820782052685  0.3891522263274894  0.7917021536897549
  0.2999899881644126  0.7220628280480738  0.1264006330908529
  0.2994988942898260  0.7312088645894972  0.4556923161980749
  0.2999085529245420  0.7227064357565781  0.7930850319049156
  0.4999270822432607  0.0555725908540552  0.1256579717910640
  0.4996554956738563  0.0550911609906919  0.4587945210617619
  0.4998922069411478  0.0556177214073656  0.7921947845961413
  0.5001487404619810  0.3888110120440800  0.1242110931929901
  0.4937391001689094  0.3850944002363904  0.4557922369984126
  0.4993978919653088  0.3889195402919654  0.7908560930521062
  0.5004061766473242  0.7220064987731335  0.1256017446350270
  0.5017055412918339  0.7216052062178946  0.4591207423408647
  0.5001368582569795  0.7227650302757452  0.7935200922596976
  0.6999952508836458  0.0555783623639812  0.1253614228405979
  0.6998627902519631  0.0552924820667613  0.4587413912537386
  0.7000110437941274  0.0556615720959144  0.7920653041306734
  0.6999412366429495  0.3888656272774824  0.1242469721899582
  0.7068512145327547  0.3841738478814207  0.4554602363056332
  0.7005334676499260  0.3887240513837042  0.7910491291268258
  0.7000774688699778  0.7220444414111853  0.1256408996506764
  0.7014812141710252  0.7224525571773199  0.4590727586202660
  0.7002224325623487  0.7227300109193351  0.7924542590301371
  0.8999447363194548  0.0556963409314832  0.1255295928460996
  0.9002705730089814  0.0557255330818194  0.4587921913545827
  0.9001127560354334  0.0557325227491674  0.7922024124300293
  0.8999216922099649  0.3888986454079345  0.1250967403793339
  0.8999514459476002  0.3892186837572921  0.4588434854274439
  0.9002496381718146  0.3889891414163814  0.7918576204584867
  0.8998798164709286  0.7221910378750849  0.1257238915793124
  0.8997120730188684  0.7221631920658141  0.4588471757150998
  0.9000778326090071  0.7223841806527815  0.7925531905080518
  0.9998984093574207  0.2223559510982724  0.1254584006704746
  0.0000476818892707  0.2227419528955110  0.4588197552903139
  0.0001066768673681  0.2224206751567692  0.7919494282189775
  0.9998195939768877  0.5554885554933479  0.1255778628711823
  0.9998912698480709  0.5555097562587151  0.4588175505121939
  0.0001035348098384  0.5556868186961665  0.7923856591418001
  0.9999788319344277  0.8890844259704451  0.1259517221031246
  0.0000867983326103  0.8890131123400310  0.4591602801551105
  0.0000668324248494  0.8890835293616847  0.7925680908930487
  0.2000153869167605  0.2224339157315640  0.1255901991658348
  0.2002453528215824  0.2226536660947360  0.4588903503962243
  0.1999436819913925  0.2224318448600897  0.7920209180689498
  0.1996099576344506  0.5553040411286503  0.1253702507112422
  0.2001248556912714  0.5579268115149034  0.4584606820759518
  0.2001296497430473  0.5561184255932474  0.7923105621145439
  0.1999484535216567  0.8891632205465143  0.1260806187130541
  0.1997624256784221  0.8877498745585015  0.4596253056152264
  0.1999144868666320  0.8891533450665676  0.7932883959702508
  0.3999304035509681  0.2223253627675561  0.1250897511734621
  0.3996854271652808  0.2212394114473994  0.4589183676862731
  0.3997691318596495  0.2222290730583012  0.7917977790172798
  0.4004825627326056  0.5553425003940191  0.1248775898419794
  0.3997083122774185  0.5578686983316316  0.4581729267972819
  0.3996881543933951  0.5562184056005748  0.7923060624162162
  0.4000176051416915  0.8889920622369586  0.1260710126014999
  0.3995917086515632  0.8875503848764410  0.4596601768815134
  0.3999229645881214  0.8892788626581591  0.7933249965376632
  0.5999919572596114  0.2220958246782274  0.1244811020989900
  0.5996085432001124  0.2212839922302905  0.4582622016721203
  0.5999217607071614  0.2222136878746213  0.7917904759561479
  0.6001856815460299  0.5553585337773654  0.1245187960256260
  0.6008086611527403  0.5618775106582775  0.4577961073375008
  0.6000482791067085  0.5567426551591340  0.7920853567131870
  0.6000169177668654  0.8888699473951291  0.1259179329577478
  0.5999909098612193  0.8885328009528237  0.4591661020868898
  0.5999787658644636  0.8891112537283448  0.7924024482015638
  0.8000105956101677  0.2223332927735342  0.1249071753568529
  0.7998816358691060  0.2214069551281739  0.4587208961737303
  0.8001633060322959  0.2222009217648164  0.7917462101640423
  0.7999552543940212  0.5555574865132158  0.1250586316782645
  0.8005603468003671  0.5557868646327008  0.4586466693046702
  0.8002016324001744  0.5557673490398399  0.7922855945506627
  0.7999886520273235  0.8888940772047107  0.1256770644537326
  0.8002779897178485  0.8892140271117769  0.4589708443861441
  0.8001111106803905  0.8891598472676635  0.7923915840544921
  0.0999589464699184  0.2776874510774761  0.2921972915435732
  0.1001047778376858  0.2781992940912517  0.6253672175089663
  0.0999588311703477  0.2778464029956567  0.9587404118519062
  0.0997584595582950  0.6109669711737739  0.2922037302651503
  0.0997646588836148  0.6115172790806299  0.6259699547046721
  0.0998732648268046  0.6111061216940640  0.9592556297417332
  0.0999865606672472  0.9444110411898379  0.2926848840077909
  0.1000428633594766  0.9446560591909189  0.6257838451892753
  0.0999132662784845  0.9446696683539740  0.9593854233135701
  0.3002267826954111  0.2778993829492933  0.2922131320223969
  0.2999695417209622  0.2782511235818674  0.6251681274193288
  0.2999282843717522  0.2778802898160322  0.9584970681311588
  0.3000067150124153  0.6087703236072528  0.2910533514747797
  0.2998600437850527  0.6129970954933767  0.6248055415929840
  0.2999072275561048  0.6112405319345343  0.9593835085606841
  0.3000287406056330  0.9438748704061268  0.2930394211911249
  0.2998257643056377  0.9443343664743936  0.6264549135749533
  0.2999770036929093  0.9446227070055572  0.9596085199423641
  0.5002484320583919  0.2774113531509813  0.2909260637863724
  0.4997785742818053  0.2775502293571321  0.6251156876750272
  0.4999528131222845  0.2777419180006575  0.9579449381942594
  0.5005751051642164  0.6103982622787144  0.2918195743902459
  0.4996444237782356  0.6121335824282498  0.6262045277235586
  0.5000534725036091  0.6112049071670000  0.9588585284236759
  0.4999925502581775  0.9440193108995771  0.2926037840754176
  0.4998860166140844  0.9443968726338525  0.6256706583683425
  0.5000805961651054  0.9445162977103506  0.9593180508583218
  0.6996278058906427  0.2775178812415930  0.2908939657604322
  0.6999557121897483  0.2772960879117932  0.6251839761248021
  0.7000323596667357  0.2776924792919004  0.9579529682798268
  0.6998355884796226  0.6105503737044273  0.2918591602768146
  0.7008332897993200  0.6120719286747800  0.6259529305261538
  0.7001515415924757  0.6112360110968423  0.9586246945819639
  0.6999602720599681  0.9443274187461624  0.2923023101926674
  0.7000130602585700  0.9445458295439053  0.6255795849347123
  0.7000152646266001  0.9444824201914983  0.9589485329152154
  0.8997541641702327  0.2778049509570052  0.2920556962648320
  0.9000004895255671  0.2778432828650282  0.6251753654251501
  0.9000258301157871  0.2777877808603506  0.9584289834977043
  0.8999262373136716  0.6111008132162327  0.2921565290137877
  0.9001824249336322  0.6113954356808762  0.6257025708258368
  0.9000903632742164  0.6111695770839702  0.9589305011369547
  0.8999423593062446  0.9445450017992629  0.2923407198043008
  0.9001954252331005  0.9447366869910923  0.6256561732779248
  0.8999960767054772  0.9445766906172751  0.9590543687621036
  0.0000235271775679  0.1111388194480583  0.2922601004985808
  0.0001185504854746  0.1113448545218745  0.6254483087455681
  0.9999857534902432  0.1112433722435213  0.9588900318070231
  0.9997303723941967  0.4442550397227976  0.2921171932940610
  0.0001424372065628  0.4446329549439269  0.6255170215731951
 -0.0000051508528073  0.4444398725552290  0.9587539160885470
  0.9997976886372441  0.7778881622773356  0.2923854818150602
  0.9999243803201026  0.7780531125793786  0.6259778491333775
  0.9998349988116715  0.7780144187226767  0.9594731842403377
  0.2001562005473332  0.1111206174687567  0.2924431357532172
  0.2000364596824155  0.1113559194277514  0.6255987957903458
  0.1999645430631247  0.1112617571496557  0.9591096241868087
  0.1999942695623958  0.4441150844453218  0.2922369186586948
  0.1999298251951771  0.4454888622650301  0.6253841206250215
  0.1999325979096724  0.4444724105806657  0.9586437689054462
  0.1995688816866803  0.7773073541622894  0.2919885809322765
  0.1991244264584253  0.7779007674381759  0.6280428573546644
  0.1999373810418988  0.7779352244442279  0.9598171552064514
  0.3998888268528161  0.1110032676974768  0.2922817371628597
  0.3997870517175031  0.1109498139164486  0.6256332198361393
  0.3999829125826083  0.1111438375430609  0.9589068166790041
  0.4004041333705928  0.4442984226140254  0.2912388324903289
  0.3992651177072588  0.4457465580990458  0.6251148829446436
  0.3999403382682232  0.4444899962989481  0.9581038405093026
  0.4004176679195837  0.7769461094809103  0.2921204178740240
  0.4005133293243759  0.7781201283350044  0.6284253478344439
  0.4000129751129862  0.7779089798975676  0.9597469533619007
  0.5998635674513365  0.1107081050222334  0.2919038294372172
  0.5998567777463322  0.1110271143181620  0.6253587448517307
  0.5999829489893571  0.1109949096581104  0.9585399452900418
  0.5999468341447382  0.4440066597247707  0.2908045338706415
  0.6001587698818511  0.4456964035452274  0.6334976108178695
  0.6000282262446389  0.4444571233553489  0.9570053459964073
  0.6001172248354366  0.7774160590912801  0.2925120877437379
  0.6002163021271371  0.7779760293143667  0.6258305979766589
  0.6002101477186628  0.7779643241231824  0.9593461417558373
  0.7998925132309154  0.1112094568721105  0.2919713407621742
  0.8000579847397661  0.1109899648575450  0.6254237300201028
  0.7999938278227745  0.1111425593986723  0.9585875115691493
  0.7996714003664777  0.4444947293004801  0.2912616172723332
  0.8006085039828292  0.4448810266366223  0.6253694282375619
  0.8000717866517205  0.4444385050064881  0.9582271965205038
  0.7998388844978379  0.7777349420646118  0.2922586632727757
  0.8003801916977197  0.7783621536684108  0.6257860407571556
  0.8000517854727960  0.7778680453840394  0.9590803914360110
  0.3015245316594033  0.7919505019154158  0.4374021845590192
 
  0.00000000E+00  0.00000000E+00  0.00000000E+00
  0.00000000E+00  0.00000000E+00  0.00000000E+00
  0.00000000E+00  0.00000000E+00  0.00000000E+00
  0.00000000E+00  0.00000000E+00  0.00000000E+00
  0.00000000E+00  0.00000000E+00  0.00000000E+00
  0.00000000E+00  0.00000000E+00  0.00000000E+00
  0.00000000E+00  0.00000000E+00  0.00000000E+00
  0.00000000E+00  0.00000000E+00  0.00000000E+00
  0.00000000E+00  0.00000000E+00  0.00000000E+00
  0.00000000E+00  0.00000000E+00  0.00000000E+00
  0.00000000E+00  0.00000000E+00  0.00000000E+00
  0.00000000E+00  0.00000000E+00  0.00000000E+00
  0.00000000E+00  0.00000000E+00  0.00000000E+00
  0.00000000E+00  0.00000000E+00  0.00000000E+00
  0.00000000E+00  0.00000000E+00  0.00000000E+00
  0.00000000E+00  0.00000000E+00  0.00000000E+00
  0.00000000E+00  0.00000000E+00  0.00000000E+00
  0.00000000E+00  0.00000000E+00  0.00000000E+00
  0.00000000E+00  0.00000000E+00  0.00000000E+00
  0.00000000E+00  0.00000000E+00  0.00000000E+00
  0.00000000E+00  0.00000000E+00  0.00000000E+00
  0.00000000E+00  0.00000000E+00  0.00000000E+00
  0.00000000E+00  0.00000000E+00  0.00000000E+00
  0.00000000E+00  0.00000000E+00  0.00000000E+00
  0.00000000E+00  0.00000000E+00  0.00000000E+00
  0.00000000E+00  0.00000000E+00  0.00000000E+00
  0.00000000E+00  0.00000000E+00  0.00000000E+00
  0.00000000E+00  0.00000000E+00  0.00000000E+00
  0.00000000E+00  0.00000000E+00  0.00000000E+00
  0.00000000E+00  0.00000000E+00  0.00000000E+00
  0.00000000E+00  0.00000000E+00  0.00000000E+00
  0.00000000E+00  0.00000000E+00  0.00000000E+00
  0.00000000E+00  0.00000000E+00  0.00000000E+00
  0.00000000E+00  0.00000000E+00  0.00000000E+00
  0.00000000E+00  0.00000000E+00  0.00000000E+00
  0.00000000E+00  0.00000000E+00  0.00000000E+00
  0.00000000E+00  0.00000000E+00  0.00000000E+00
  0.00000000E+00  0.00000000E+00  0.00000000E+00
  0.00000000E+00  0.00000000E+00  0.00000000E+00
  0.00000000E+00  0.00000000E+00  0.00000000E+00
  0.00000000E+00  0.00000000E+00  0.00000000E+00
  0.00000000E+00  0.00000000E+00  0.00000000E+00
  0.00000000E+00  0.00000000E+00  0.00000000E+00
  0.00000000E+00  0.00000000E+00  0.00000000E+00
  0.00000000E+00  0.00000000E+00  0.00000000E+00
  0.00000000E+00  0.00000000E+00  0.00000000E+00
  0.00000000E+00  0.00000000E+00  0.00000000E+00
  0.00000000E+00  0.00000000E+00  0.00000000E+00
  0.00000000E+00  0.00000000E+00  0.00000000E+00
  0.00000000E+00  0.00000000E+00  0.00000000E+00
  0.00000000E+00  0.00000000E+00  0.00000000E+00
  0.00000000E+00  0.00000000E+00  0.00000000E+00
  0.00000000E+00  0.00000000E+00  0.00000000E+00
  0.00000000E+00  0.00000000E+00  0.00000000E+00
  0.00000000E+00  0.00000000E+00  0.00000000E+00
  0.00000000E+00  0.00000000E+00  0.00000000E+00
  0.00000000E+00  0.00000000E+00  0.00000000E+00
  0.00000000E+00  0.00000000E+00  0.00000000E+00
  0.00000000E+00  0.00000000E+00  0.00000000E+00
  0.00000000E+00  0.00000000E+00  0.00000000E+00
  0.00000000E+00  0.00000000E+00  0.00000000E+00
  0.00000000E+00  0.00000000E+00  0.00000000E+00
  0.00000000E+00  0.00000000E+00  0.00000000E+00
  0.00000000E+00  0.00000000E+00  0.00000000E+00
  0.00000000E+00  0.00000000E+00  0.00000000E+00
  0.00000000E+00  0.00000000E+00  0.00000000E+00
  0.00000000E+00  0.00000000E+00  0.00000000E+00
  0.00000000E+00  0.00000000E+00  0.00000000E+00
  0.00000000E+00  0.00000000E+00  0.00000000E+00
  0.00000000E+00  0.00000000E+00  0.00000000E+00
  0.00000000E+00  0.00000000E+00  0.00000000E+00
  0.00000000E+00  0.00000000E+00  0.00000000E+00
  0.00000000E+00  0.00000000E+00  0.00000000E+00
  0.00000000E+00  0.00000000E+00  0.00000000E+00
  0.00000000E+00  0.00000000E+00  0.00000000E+00
  0.00000000E+00  0.00000000E+00  0.00000000E+00
  0.00000000E+00  0.00000000E+00  0.00000000E+00
  0.00000000E+00  0.00000000E+00  0.00000000E+00
  0.00000000E+00  0.00000000E+00  0.00000000E+00
  0.00000000E+00  0.00000000E+00  0.00000000E+00
  0.00000000E+00  0.00000000E+00  0.00000000E+00
  0.00000000E+00  0.00000000E+00  0.00000000E+00
  0.00000000E+00  0.00000000E+00  0.00000000E+00
  0.00000000E+00  0.00000000E+00  0.00000000E+00
  0.00000000E+00  0.00000000E+00  0.00000000E+00
  0.00000000E+00  0.00000000E+00  0.00000000E+00
  0.00000000E+00  0.00000000E+00  0.00000000E+00
  0.00000000E+00  0.00000000E+00  0.00000000E+00
  0.00000000E+00  0.00000000E+00  0.00000000E+00
  0.00000000E+00  0.00000000E+00  0.00000000E+00
  0.00000000E+00  0.00000000E+00  0.00000000E+00
  0.00000000E+00  0.00000000E+00  0.00000000E+00
  0.00000000E+00  0.00000000E+00  0.00000000E+00
  0.00000000E+00  0.00000000E+00  0.00000000E+00
  0.00000000E+00  0.00000000E+00  0.00000000E+00
  0.00000000E+00  0.00000000E+00  0.00000000E+00
  0.00000000E+00  0.00000000E+00  0.00000000E+00
  0.00000000E+00  0.00000000E+00  0.00000000E+00
  0.00000000E+00  0.00000000E+00  0.00000000E+00
  0.00000000E+00  0.00000000E+00  0.00000000E+00
  0.00000000E+00  0.00000000E+00  0.00000000E+00
  0.00000000E+00  0.00000000E+00  0.00000000E+00
  0.00000000E+00  0.00000000E+00  0.00000000E+00
  0.00000000E+00  0.00000000E+00  0.00000000E+00
  0.00000000E+00  0.00000000E+00  0.00000000E+00
  0.00000000E+00  0.00000000E+00  0.00000000E+00
  0.00000000E+00  0.00000000E+00  0.00000000E+00
  0.00000000E+00  0.00000000E+00  0.00000000E+00
  0.00000000E+00  0.00000000E+00  0.00000000E+00
  0.00000000E+00  0.00000000E+00  0.00000000E+00
  0.00000000E+00  0.00000000E+00  0.00000000E+00
  0.00000000E+00  0.00000000E+00  0.00000000E+00
  0.00000000E+00  0.00000000E+00  0.00000000E+00
  0.00000000E+00  0.00000000E+00  0.00000000E+00
  0.00000000E+00  0.00000000E+00  0.00000000E+00
  0.00000000E+00  0.00000000E+00  0.00000000E+00
  0.00000000E+00  0.00000000E+00  0.00000000E+00
  0.00000000E+00  0.00000000E+00  0.00000000E+00
  0.00000000E+00  0.00000000E+00  0.00000000E+00
  0.00000000E+00  0.00000000E+00  0.00000000E+00
  0.00000000E+00  0.00000000E+00  0.00000000E+00
  0.00000000E+00  0.00000000E+00  0.00000000E+00
  0.00000000E+00  0.00000000E+00  0.00000000E+00
  0.00000000E+00  0.00000000E+00  0.00000000E+00
  0.00000000E+00  0.00000000E+00  0.00000000E+00
  0.00000000E+00  0.00000000E+00  0.00000000E+00
  0.00000000E+00  0.00000000E+00  0.00000000E+00
  0.00000000E+00  0.00000000E+00  0.00000000E+00
  0.00000000E+00  0.00000000E+00  0.00000000E+00
  0.00000000E+00  0.00000000E+00  0.00000000E+00
  0.00000000E+00  0.00000000E+00  0.00000000E+00
  0.00000000E+00  0.00000000E+00  0.00000000E+00
  0.00000000E+00  0.00000000E+00  0.00000000E+00
  0.00000000E+00  0.00000000E+00  0.00000000E+00
  0.00000000E+00  0.00000000E+00  0.00000000E+00
  0.00000000E+00  0.00000000E+00  0.00000000E+00
  0.00000000E+00  0.00000000E+00  0.00000000E+00
  0.00000000E+00  0.00000000E+00  0.00000000E+00
  0.00000000E+00  0.00000000E+00  0.00000000E+00
  0.00000000E+00  0.00000000E+00  0.00000000E+00
  0.00000000E+00  0.00000000E+00  0.00000000E+00
  0.00000000E+00  0.00000000E+00  0.00000000E+00
  0.00000000E+00  0.00000000E+00  0.00000000E+00
  0.00000000E+00  0.00000000E+00  0.00000000E+00
  0.00000000E+00  0.00000000E+00  0.00000000E+00
  0.00000000E+00  0.00000000E+00  0.00000000E+00
  0.00000000E+00  0.00000000E+00  0.00000000E+00
  0.00000000E+00  0.00000000E+00  0.00000000E+00
  0.00000000E+00  0.00000000E+00  0.00000000E+00
  0.00000000E+00  0.00000000E+00  0.00000000E+00
  0.00000000E+00  0.00000000E+00  0.00000000E+00
  0.00000000E+00  0.00000000E+00  0.00000000E+00
  0.00000000E+00  0.00000000E+00  0.00000000E+00
  0.00000000E+00  0.00000000E+00  0.00000000E+00
  0.00000000E+00  0.00000000E+00  0.00000000E+00
  0.00000000E+00  0.00000000E+00  0.00000000E+00
  0.00000000E+00  0.00000000E+00  0.00000000E+00