
&control
  prefix = 'SiVH3',
  pseudo_dir = './pseudo',
  outdir = './',

  calculation = 'nscf'
  restart_mode = 'from_scratch',
  tprnfor = .true.
  wf_collect = .true.
  forc_conv_thr = 1.0d-4
/
&system    
  ibrav=  0, celldm(1) = 30.7893077475, nat = 218, ntyp= 2,
  ecutwfc = 50.0,
  nbnd = 528,
  occupations='smearing', smearing='gauss', degauss=0.001
  la2F = .true.
  nosym = .true.
/
&electrons
  mixing_mode = 'plain'
  mixing_beta = 0.7 
  conv_thr =  1.0d-5
/
CELL_PARAMETERS (alat)
   1.006896307   0.000000000   0.000000000
   0.000000000   1.006896307   0.000000000
   0.000000000   0.000000000   1.006896307
ATOMIC_SPECIES
 Si  28.08550  Si.pbe-n-kjpaw_psl.0.1.UPF
 H    1.00794  H.pbe-kjpaw_psl.0.1.UPF
ATOMIC_POSITIONS (alat)
Si      -0.000772992  -0.000009195  -0.000424435
Si       0.167010793   0.167778867  -0.000784241
Si       0.166880381  -0.000095928   0.167213763
Si      -0.000861398   0.167648849   0.167208265
Si       0.083167676   0.083932169   0.083349566
Si       0.250801336   0.251563476   0.083097792
Si       0.250901564   0.083631117   0.251062979
Si       0.082868121   0.251663027   0.251065092
Si      -0.000723948   0.000046290   0.334982548
Si       0.166874227   0.167634542   0.334940006
Si       0.167213997   0.000279431   0.502933402
Si      -0.000484856   0.168008742   0.502928414
Si       0.083078371   0.083854515   0.418968684
Si       0.250695340   0.251443442   0.418895808
Si       0.251267216   0.084268492   0.586704082
Si       0.083507117   0.252054421   0.586707410
Si      -0.000590201   0.000209970   0.670905575
Si       0.167363965   0.168138564   0.670623569
Si       0.167078142   0.000200404   0.838550984
Si      -0.000579873   0.167861276   0.838549344
Si       0.083350563   0.084133511   0.754625753
Si       0.251274940   0.252055911   0.754488285
Si       0.251032300   0.083998313   0.922296924
Si       0.083231986   0.251805949   0.922293487
Si      -0.001086432   0.335592974  -0.001022527
Si       0.167016186   0.503645586  -0.000514364
Si       0.165232799   0.335486659   0.165559627
Si      -0.000894570   0.503558946   0.167376753
Si       0.082126923   0.419775760   0.082417695
Si       0.251049004   0.587604510   0.083317656
Si       0.248293442   0.419615243   0.248466027
Si       0.083105242   0.587503455   0.251251058
Si      -0.000801389   0.335662540   0.335135864
Si       0.166885318   0.503565613   0.335178617
Si       0.167369811   0.336188183   0.502574008
Si      -0.000812955   0.503625380   0.503102638
Si       0.082941135   0.419774778   0.418992887
Si       0.248298327   0.590260407   0.419131494
Si       0.250658298   0.419868286   0.587334366
Si       0.082850171   0.587693005   0.587106968
Si      -0.000492569   0.335830071   0.670749359
Si       0.166843535   0.503816180   0.671138504
Si       0.167225751   0.335833232   0.838482645
Si      -0.000744005   0.503776614   0.838709869
Si       0.083063464   0.419784653   0.754915977
Si       0.250876610   0.587695047   0.755123853
Si       0.250965047   0.419659506   0.922585798
Si       0.083022033   0.587591228   0.922718212
Si      -0.000939181   0.671345694  -0.000176986
Si       0.166985291   0.839164677  -0.000405676
Si       0.167170345   0.671360790   0.167396313
Si      -0.000940470   0.838932161   0.167407612
Si       0.083106166   0.755198206   0.083557217
Si       0.250927130   0.923096158   0.083307662
Si       0.251042388   0.755439504   0.251158436
Si       0.083027261   0.922930688   0.251163145
Si      -0.000899289   0.671370257   0.335200335
Si       0.167009660   0.839268460   0.335123779
Si       0.165234759   0.673159164   0.503267571
Si      -0.001076079   0.839749209   0.503180219
Si       0.082133460   0.756312031   0.418990605
Si       0.250955869   0.923076690   0.419103531
Si       0.250773182   0.755645756   0.587186873
Si       0.083219112   0.923360871   0.586959829
Si      -0.000878351   0.671555239   0.671118035
Si       0.166994968   0.839536848   0.670979243
Si       0.166864932   0.671556388   0.838854619
Si      -0.000791939   0.839198233   0.838774590
Si       0.083143566   0.755421786   0.754836249
Si       0.251030260   0.923351091   0.754747754
Si       0.250927491   0.755455886   0.922553382
Si       0.083160355   0.923096116   0.922561758
Si       0.334825335  -0.000313600  -0.001014749
Si       0.502875330   0.167786154  -0.000533312
Si       0.502793123  -0.000145430   0.167354063
Si       0.334724893   0.165999116   0.165557156
Si       0.419015169   0.082900185   0.082413078
Si       0.586850912   0.251801590   0.083295570
Si       0.586739442   0.083851205   0.251225756
Si       0.418852335   0.249055212   0.248460262
Si       0.334886778  -0.000055454   0.335127091
Si       0.502794022   0.167622518   0.335160802
Si       0.502855204  -0.000057747   0.503103467
Si       0.335427576   0.168102667   0.502572695
Si       0.419006330   0.083676487   0.418980395
Si       0.589468968   0.249056911   0.419118573
Si       0.586924282   0.083617982   0.587097232
Si       0.419098698   0.251356321   0.587383960
Si       0.335042117   0.000279224   0.670756717
Si       0.503048428   0.167566476   0.671180581
Si       0.503005346   0.000015209   0.838729083
Si       0.335047147   0.168001216   0.838485418
Si       0.418997474   0.083808827   0.754949594
Si       0.586922206   0.251657377   0.755115210
Si       0.586828906   0.083803613   0.922699574
Si       0.418884988   0.251740583   0.922575255
Si       0.334842183   0.335611255  -0.000525149
Si       0.502579584   0.503350183  -0.000347600
Si       0.502691260   0.335390254   0.167074480
Si       0.334646885   0.503444423   0.167087799
Si       0.418666945   0.419420084   0.083508219
Si       0.586094716   0.586866481   0.084311939
Si       0.585929746   0.419134095   0.252037385
Si       0.418368821   0.586703837   0.252050796
Si       0.330100606   0.330860598   0.327016399
Si       0.504993689   0.505765909   0.332977656
Si       0.510878286   0.330777451   0.507911798
Si       0.330072418   0.511671384   0.507864826
Si       0.585938538   0.586719258   0.419589748
Si       0.589433402   0.419611084   0.589630218
Si       0.418830736   0.590243665   0.589639990
Si       0.335418046   0.336178170   0.670629016
Si       0.502767794   0.503559464   0.671083504
Si       0.502855107   0.335653232   0.838792282
Si       0.334875894   0.503629745   0.838802102
Si       0.418987619   0.419767568   0.755060329
Si       0.586715669   0.587491760   0.754860675
Si       0.586695475   0.419605296   0.922693751
Si       0.418829912   0.587468581   0.922701444
Si       0.334838753   0.671572111  -0.000593883
Si       0.502805019   0.839267189  -0.000535726
Si       0.501971797   0.671230832   0.167515355
Si       0.334838832   0.839344250   0.167187302
Si       0.418630416   0.755528756   0.083224022
Si       0.586658274   0.922700703   0.083717308
Si       0.586090637   0.754444584   0.251872135
Si       0.418836192   0.922948303   0.251276991
Si       0.334639150   0.671661443   0.335310221
Si       0.502567879   0.839091066   0.335401764
Si       0.502674971   0.671656692   0.503337785
Si       0.334818639   0.839280888   0.503153565
Si       0.418643683   0.755246586   0.419338075
Si       0.586689831   0.922942563   0.419143266
Si       0.586829148   0.755435765   0.586936385
Si       0.418871251   0.923072845   0.587019643
Si       0.334703095   0.673154961   0.672709485
Si       0.502861685   0.839268709   0.670959102
Si       0.502781776   0.671365974   0.838870886
Si       0.334827306   0.839751395   0.839040536
Si       0.418996548   0.756299040   0.755819763
Si       0.586821518   0.922927288   0.754945514
Si       0.586649778   0.755001005   0.922929927
Si       0.418917203   0.923130723   0.922499356
Si       0.670587437  -0.000160732  -0.000200024
Si       0.838401294   0.167764042  -0.000410872
Si       0.838174450  -0.000164525   0.167405803
Si       0.670601505   0.167923636   0.167378201
Si       0.754444499   0.083870512   0.083541990
Si       0.922327973   0.251702977   0.083309466
Si       0.922165990   0.083804382   0.251163803
Si       0.754668170   0.251806648   0.251144381
Si       0.670605241  -0.000141534   0.335187871
Si       0.838505812   0.167792620   0.335117810
Si       0.839000657  -0.000306173   0.503159155
Si       0.672390979   0.166000498   0.503244557
Si       0.755554444   0.082895708   0.418969371
Si       0.922309464   0.251745515   0.419101080
Si       0.922577971   0.084020480   0.586941651
Si       0.754847739   0.251572514   0.587164249
Si       0.670789159  -0.000104564   0.671105719
Si       0.838742333   0.167791844   0.670952801
Si       0.838428953  -0.000014804   0.838771564
Si       0.670790262   0.167646834   0.838833963
Si       0.754656243   0.083920821   0.754821798
Si       0.922576352   0.251804609   0.754726272
Si       0.922331359   0.083930607   0.922564826
Si       0.754688689   0.251696777   0.922540114
Si       0.670804920   0.335609572  -0.000609079
Si       0.838517636   0.503555538  -0.000539597
Si       0.838581225   0.335615385   0.167193420
Si       0.670462293   0.502739717   0.167505695
Si       0.754764913   0.419393043   0.083216513
Si       0.921932656   0.587406583   0.083739835
Si       0.922190033   0.419607068   0.251290868
Si       0.753657297   0.586857908   0.251881054
Si       0.670880549   0.335397654   0.335296946
Si       0.838322207   0.503344856   0.335401282
Si       0.838505036   0.335608202   0.503143969
Si       0.670868972   0.503436142   0.503320063
Si       0.754467126   0.419413240   0.419317251
Si       0.922177815   0.587459326   0.419149442
Si       0.922298959   0.419657314   0.587013843
Si       0.754644871   0.587591672   0.586923106
Si       0.672365116   0.335501422   0.672701600
Si       0.838487025   0.503641443   0.670952090
Si       0.838978934   0.335591763   0.839023045
Si       0.670595684   0.503558449   0.838868390
Si       0.755526366   0.419774921   0.755818210
Si       0.922146674   0.587593189   0.754948323
Si       0.922369496   0.419675342   0.922472839
Si       0.754247871   0.587405084   0.922933167
Si       0.670203351   0.670957336   0.000178098
Si       0.838183803   0.838952353  -0.000200830
Si       0.837794268   0.670956918   0.167790336
Si       0.670205891   0.838571362   0.167779336
Si       0.754135458   0.754893747   0.083850439
Si       0.922133944   0.922901298   0.083559079
Si       0.921935116   0.755006296   0.251344019
Si       0.754257661   0.922701145   0.251340571
Si       0.670473068   0.671255008   0.335988359
Si       0.838535372   0.839293907   0.335195543
Si       0.838563292   0.671556325   0.503135366
Si       0.670792087   0.839343494   0.503135849
Si       0.754768085   0.755541166   0.419347275
Si       0.922406423   0.923155797   0.419080010
Si       0.922304663   0.755438680   0.587060224
Si       0.754681142   0.923089353   0.587047376
Si       0.670584530   0.671354919   0.670812732
Si       0.838381912   0.839158455   0.670997248
Si       0.838166028   0.671353343   0.838919734
Si       0.670578430   0.838932640   0.838909715
Si       0.754426311   0.755193919   0.754874446
Si       0.922313520   0.923087809   0.754822455
Si       0.922133510   0.755193828   0.922751095
Si       0.754427608   0.922897041   0.922738094
H        0.465052725   0.386718732   0.451896547
H        0.386254142   0.386956690   0.372520530
H        0.386107691   0.466029155   0.451775779
K_POINTS {automatic}
  3 3 3 0 0 0

