GaN_ONH                                 
    1.000000000000000     
    15.8909244537000003    0.0000000000000000    0.0000000000000000
     0.0000000000000000   16.5143318175999987    0.0000000000000000
     0.0000000000000000    0.0000000000000000   15.4982528686999999
   Ga   N    O    H 
   180   179     1     1
Direct
  0.0997552334881178  0.0553863209522234  0.3327794595034135
  0.0998559628146154  0.0554248691694070  0.6664069500464151
  0.0998685777148225  0.0554517454809798  0.9995455096028749
  0.0994782930443421  0.3883110869583106  0.3328349388691336
  0.0992521397910409  0.3882740421859339  0.6668344187479320
  0.0996286792184193  0.3884870881513649  0.9998099212404625
  0.0994838435709156  0.7221843510017578  0.3328458923618953
  0.0997361480971648  0.7222653046342558  0.6667088560872330
  0.0997229862864089  0.7222794467209184  0.9998220355269396
  0.2999092850296563  0.0553762091004302  0.3328391304120188
  0.2999314208042207  0.0555402411988482  0.6665101977405712
  0.2999347277528344  0.0554660753792007  0.9996635630223736
  0.2988902435598604  0.3877838864708636  0.3318959385957285
  0.2986139225017226  0.3881222316877526  0.6681074356371894
  0.2996822819404983  0.3883688171651158  0.9995290264963117
  0.2991352147830142  0.7231290352542743  0.3317167691325906
  0.2997843745864373  0.7234252235068652  0.6683581671017080
  0.2998282739761251  0.7225341797258054  0.9995541922829361
  0.5000906969703394  0.0553762091004302  0.3328391304120188
  0.5000685611957749  0.0555402411988482  0.6665101977405712
  0.5000652542471613  0.0554660753792007  0.9996635630223736
  0.5011097984401403  0.3877838864708636  0.3318959385957285
  0.5013860604982767  0.3881222316877526  0.6681074356371894
  0.5003177600594952  0.3883688171651158  0.9995290264963117
  0.5008647972169840  0.7231290352542743  0.3317167691325906
  0.5002156374135609  0.7234252235068652  0.6683581671017080
  0.5001717380238802  0.7225341797258054  0.9995541922829361
  0.7002447785118804  0.0553863209522234  0.3327794595034135
  0.7001440121853832  0.0554248691694070  0.6664069500464151
  0.7001314192851780  0.0554517454809798  0.9995455096028749
  0.7005216969556542  0.3883110869583106  0.3328349388691336
  0.7007478642089637  0.3882740421859339  0.6668344187479320
  0.7003713107815770  0.3884870881513649  0.9998099212404625
  0.7005161394290838  0.7221843510017578  0.3328458923618953
  0.7002638489028357  0.7222653046342558  0.6667088560872330
  0.7002769967135904  0.7222794467209184  0.9998220355269396
  0.8999999759999966  0.0553440432281960  0.3328244381597685
  0.8999999759999966  0.0553380176057132  0.6663121097353510
  0.8999999759999966  0.0554152213942203  0.9995331386937707
  0.8999999759999966  0.3884164245187947  0.3328521223842955
  0.8999999759999966  0.3885188173810903  0.6665277647024865
  0.8999999759999966  0.3886072805872871  0.9996754509438404
  0.8999999759999966  0.7221158886867585  0.3329012035928187
  0.8999999759999966  0.7221948584093099  0.6665240647730784
  0.8999999759999966  0.7222095239790463  0.9996585453118243
  0.9998129515316450  0.2218302690800229  0.3328141626067946
  0.9998289728522565  0.2218463512582289  0.6664214747223625
  0.9998794432507410  0.2219434236983773  0.9995745002632077
  0.9995915288700132  0.5551933966166089  0.3325963604075497
  0.9995921536976482  0.5552760231991840  0.6667536199726172
  0.9997783659711956  0.5553624273692535  0.9997906236113465
  0.9998596425459354  0.8888444483401514  0.3328625279092989
  0.9999238042599714  0.8888410827158637  0.6664236779548389
  0.9999122043444828  0.8888826866920141  0.9995969891466814
  0.1995390162130093  0.2215711784371166  0.3325244004116783
  0.1996375614409232  0.2217776737183925  0.6666040064639063
  0.1997768385571916  0.2218838767365199  0.9996782225572858
  0.1989978335505000  0.5549997658968948  0.3319358292170591
  0.1983738368132180  0.5546372389720275  0.6687795118358864
  0.1994885654545016  0.5553069837316258  0.9994847939383078
  0.1997085181487606  0.8892964894906896  0.3326713301054909
  0.1998364976667659  0.8891598532489482  0.6666638605952784
  0.1998479368526773  0.8890301329399790  0.9997302056469479
  0.4000000059999991  0.2216200493156535  0.3327124749671810
  0.4000000059999991  0.2219169804776300  0.6667251989239276
  0.4000000059999991  0.2218293319801532  0.9997493457413640
  0.4000000059999991  0.5542868473867060  0.3165739087535187
  0.4000000059999991  0.5555933437733813  0.6670459083574443
  0.4000000059999991  0.5553873803314460  0.0002123752750407
  0.4000000059999991  0.8891142294532415  0.3328975059314416
  0.4000000059999991  0.8895031133809965  0.6670248725569081
  0.4000000059999991  0.8891051516070760  0.9998924598116261
  0.6004609957869889  0.2215711784371166  0.3325244004116783
  0.6003624655590727  0.2217776737183925  0.6666040064639063
  0.6002231734428065  0.2218838767365199  0.9996782225572858
  0.6010022084494935  0.5549997658968948  0.3319358292170591
  0.6016261901867850  0.5546372389720275  0.6687795118358864
  0.6005114905454931  0.5553069837316258  0.9994847939383078
  0.6002915238512401  0.8892964894906896  0.3326713301054909
  0.6001634993332345  0.8891598532489482  0.6666638605952784
  0.6001520901473256  0.8890301329399790  0.9997302056469479
  0.8001870604683532  0.2218302690800229  0.3328141626067946
  0.8001710391477417  0.2218463512582289  0.6664214747223625
  0.8001205687492572  0.2219434236983773  0.9995745002632077
  0.8004084831299849  0.5551933966166089  0.3325963604075497
  0.8004078583023500  0.5552760231991840  0.6667536199726172
  0.8002216460288025  0.5553624273692535  0.9997906236113465
  0.8001403694540627  0.8888444483401514  0.3328625279092989
  0.8000762077400267  0.8888410827158637  0.6664236779548389
  0.8000878066555117  0.8888826866920141  0.9995969891466814
  0.0997433656503688  0.2774087858458714  0.1661662011024774
  0.0994289232349601  0.2772672935466431  0.4997579641823080
  0.0998368196102675  0.2775043476144248  0.8331853318321052
  0.0993720821522714  0.6111611553649183  0.1661073800465473
  0.0972008888247160  0.6111594507013152  0.4999386835745980
  0.0994685393998722  0.6113162939367953  0.8336510392617598
  0.0997404610076984  0.9445206668337320  0.1661370238021860
  0.0995400664465436  0.9447127026292321  0.4996936870740214
  0.0998708866453910  0.9444879710094085  0.8330642414859426
  0.2997787580840594  0.2769537804809019  0.1660457032357954
  0.2988928433671134  0.2754521138733352  0.4999046101663609
  0.2999431879292871  0.2772714516143608  0.8334545172877910
  0.2985083290299357  0.6117281485097621  0.1641217551862226
  0.2860003561423028  0.6160378570396361  0.5062814720169655
  0.2999353874899811  0.6110572336170890  0.8339310244520206
  0.2999115048748848  0.9444753604442440  0.1662562031485635
  0.2999087336084685  0.9448153725591837  0.4998501681547296
  0.2998898251702826  0.9445216199348465  0.8332926123948639
  0.5002212829159447  0.2769537804809019  0.1660457032357954
  0.5011071686328847  0.2754521138733352  0.4999046101663609
  0.5000568540707135  0.2772714516143608  0.8334545172877910
  0.5014916529700670  0.6117281485097621  0.1641217551862226
  0.5139996558576954  0.6160378570396361  0.5062814720169655
  0.5000646245100171  0.6110572336170890  0.8339310244520206
  0.5000885071251133  0.9444753604442440  0.1662562031485635
  0.5000913083915250  0.9448153725591837  0.4998501681547296
  0.5001102168297180  0.9445216199348465  0.8332926123948639
  0.7002566163496269  0.2774087858458714  0.1661662011024774
  0.7005710367650408  0.2772672935466431  0.4997579641823080
  0.7001631773897330  0.2775043476144248  0.8331853318321052
  0.7006278918477236  0.6111611553649183  0.1661073800465473
  0.7027990791752856  0.6111594507013152  0.4999386835745980
  0.7005314426001235  0.6113162939367953  0.8336510392617598
  0.7002595139923073  0.9445206668337320  0.1661370238021860
  0.7004599235534599  0.9447127026292321  0.4996936870740214
  0.7001290733546099  0.9444879710094085  0.8330642414859426
  0.8999999759999966  0.2775216353815395  0.1661648452016280
  0.8999999759999966  0.2773765810155311  0.4996744027352022
  0.8999999759999966  0.2776120400472593  0.8330418064440934
  0.8999999759999966  0.6111431757010877  0.1661737720301701
  0.8999999759999966  0.6110840472351100  0.4997844752213823
  0.8999999759999966  0.6111756861478028  0.8332271434638301
  0.8999999759999966  0.9444361352792612  0.1661708704593536
  0.8999999759999966  0.9444137497630294  0.4996195790200133
  0.8999999759999966  0.9444590470100138  0.8329758413521944
  0.9998866800408450  0.1109527371589607  0.1661300340895338
  0.9998137508938569  0.1109215644274002  0.4996138105616197
  0.9999299906490151  0.1109885622038647  0.8329656055264536
  0.9997863760197845  0.4442054292363053  0.1662298664293758
  0.9995737234201272  0.4439098788633089  0.4997881720363964
  0.9998240355097252  0.4443289591586677  0.8332698529518652
  0.9997843619600104  0.7778906995587107  0.1662445620157627
  0.9996620388922750  0.7779634688289434  0.4997382079076971
  0.9998674098170852  0.7778995734598766  0.8331121420979599
  0.1998379977477001  0.1107671031840809  0.1661206140875606
  0.1996419797045661  0.1105510652165052  0.4996601247895924
  0.1999126408116538  0.1109478815023692  0.8330743960677225
  0.1994986037551243  0.4440567364226808  0.1658833660840884
  0.1985447194149401  0.4436099997696772  0.5008831261748199
  0.1995326631189016  0.4440437857704396  0.8339084418231408
  0.1994467870727661  0.7781645125797709  0.1659999610493301
  0.1987080552075113  0.7795886789285191  0.4998179976012054
  0.1995794415201644  0.7780057459629646  0.8335693707564502
  0.4000000059999991  0.1107638905787312  0.1662168969518163
  0.4000000059999991  0.1107416263430352  0.4997439401746462
  0.4000000059999991  0.1109049242751681  0.8331225314943680
  0.4000000059999991  0.4427156103874879  0.1641111252525604
  0.4000000059999991  0.4301928042870102  0.5046925151677257
  0.4000000059999991  0.4443320116853471  0.8338533008829643
  0.4000000059999991  0.7780439645065371  0.1660604746169767
  0.4000000059999991  0.7793682778192732  0.5014497770689132
  0.4000000059999991  0.7781550235916441  0.8338884311510668
  0.6001620442523006  0.1107671031840809  0.1661206140875606
  0.6003580622954416  0.1105510652165052  0.4996601247895924
  0.6000873701883478  0.1109478815023692  0.8330743960677225
  0.6005014082448739  0.4440567364226808  0.1658833660840884
  0.6014552925850651  0.4436099997696772  0.5008831261748199
  0.6004673338810989  0.4440437857704396  0.8339084418231408
  0.6005532549272345  0.7781645125797709  0.1659999610493301
  0.6012919417924891  0.7795886789285191  0.4998179976012054
  0.6004206154798339  0.7780057459629646  0.8335693707564502
  0.8001133319591602  0.1109527371589607  0.1661300340895338
  0.8001862611061412  0.1109215644274002  0.4996138105616197
  0.8000700213509830  0.1109885622038647  0.8329656055264536
  0.8002136349802100  0.4442054292363053  0.1662298664293758
  0.8004262885798710  0.4439098788633089  0.4997881720363964
  0.8001759764902729  0.4443289591586677  0.8332698529518652
  0.8002156500399877  0.7778906995587107  0.1662445620157627
  0.8003379731077302  0.7779634688289434  0.4997382079076971
  0.8001326021829129  0.7778995734598766  0.8331121420979599
  0.0998940884867991  0.0554659767881063  0.1251525873375101
  0.0998140969156367  0.0554834352344997  0.4584240947862952
  0.1000069905021661  0.0555008741895193  0.7919141403231791
  0.0997865209758331  0.3886007842517927  0.1254147332250497
  0.0998434163439299  0.3885033333168906  0.4586047010624696
  0.0999092274282631  0.3887491022934810  0.7921941751799153
  0.0998463423435538  0.7221659830023981  0.1254521885655109
  0.1001169039562484  0.7219995487950897  0.4587080882193035
  0.1000113658306248  0.7221584734259352  0.7921025478037365
  0.2999858404265012  0.0554397365903654  0.1253047998701291
  0.3000088074174769  0.0556218154410359  0.4585383743574880
  0.2999963636507132  0.0555015586449201  0.7919947090164641
  0.2995748739560895  0.3883353213790954  0.1253627747117321
  0.2990629252218540  0.3890746422393860  0.4580322699613362
  0.3000116760787819  0.3888680711945938  0.7928150017037368
  0.2998297114275914  0.7226733753145496  0.1253476184001272
  0.3001801537445630  0.7222123451119202  0.4586349684580995
  0.2999845804651073  0.7221673463260174  0.7930684277110132
  0.5000141715734969  0.0554397365903654  0.1253047998701291
  0.4999912045825283  0.0556218154410359  0.4585383743574880
  0.5000036483492920  0.0555015586449201  0.7919947090164641
  0.5004251380439086  0.3883353213790954  0.1253627747117321
  0.5009370567781346  0.3890746422393860  0.4580322699613362
  0.4999883359212163  0.3888680711945938  0.7928150017037368
  0.5001703305724092  0.7226733753145496  0.1253476184001272
  0.4998198582554352  0.7222123451119202  0.4586349684580995
  0.5000154315348908  0.7221673463260174  0.7930684277110132
  0.7001059305131960  0.0554659767881063  0.1251525873375101
  0.7001859000843638  0.0554834352344997  0.4584240947862952
  0.6999930214978320  0.0555008741895193  0.7919141403231791
  0.7002134760241674  0.3886007842517927  0.1254147332250497
  0.7001565656560658  0.3885033333168906  0.4586047010624696
  0.7000907475717355  0.3887491022934810  0.7921941751799153
  0.7001536396564489  0.7221659830023981  0.1254521885655109
  0.6998831010437527  0.7219995487950897  0.4587080882193035
  0.6999885931693726  0.7221584734259352  0.7921025478037365
  0.8999999759999966  0.0554155453935010  0.1251404891488335
  0.8999999759999966  0.0553515541587188  0.4584660144522346
  0.8999999759999966  0.0554719018698435  0.7918491008753179
  0.8999999759999966  0.3886548103629082  0.1252833318571902
  0.8999999759999966  0.3884360464752845  0.4585056033896961
  0.8999999759999966  0.3887942830823832  0.7920155558462980
  0.8999999759999966  0.7221426812903573  0.1252916492163934
  0.8999999759999966  0.7219845277234072  0.4585961973625388
  0.8999999759999966  0.7221618529751126  0.7920090978070959
  0.9999178103282702  0.2220248900314274  0.1251783614251991
  0.9998644847695388  0.2219581332829961  0.4584605438804843
  0.9999906193953834  0.2221183773939543  0.7919292828467732
  0.9998277617053120  0.5553307091286044  0.1254028298835479
  0.9993365142603210  0.5549195595376659  0.4583210987555404
  0.9999737787858152  0.5554651425678330  0.7921421994612103
  0.9999506111084884  0.8888074855844792  0.1252238478496750
  0.9999920916729721  0.8887396205292362  0.4585228200050366
  0.0000126596553613  0.8888396166259938  0.7919326821848998
  0.1998106460414277  0.2219336341787681  0.1253122858741449
  0.1994323518497296  0.2218402860756541  0.4582762791383885
  0.2000111630507604  0.2221811862434109  0.7920086311362908
  0.1993580912973485  0.5552187787451714  0.1252143394264706
  0.1982461066983205  0.5543112194992972  0.4580802830907587
  0.1998482028853914  0.5554123655960979  0.7933269894395494
  0.1999051732467478  0.8890116540367359  0.1253745422693555
  0.1999630208594567  0.8894679901777209  0.4583804951217374
  0.2000145447324257  0.8888196907995365  0.7920880808179760
  0.4000000059999991  0.2219716463126105  0.1254038781835334
  0.4000000059999991  0.2224214515158067  0.4586199207551331
  0.4000000059999991  0.2221964900200391  0.7920646378136595
  0.4000000059999991  0.5553700676881590  0.1268910266632446
  0.4000000059999991  0.5554674872380758  0.7919428739999077
  0.4000000059999991  0.8888993736722171  0.1255522252627870
  0.4000000059999991  0.8888639892124530  0.4587092438892739
  0.4000000059999991  0.8888920139248242  0.7923225272164132
  0.6001893659585704  0.2219336341787681  0.1253122858741449
  0.6005676751502662  0.2218402860756541  0.4582762791383885
  0.5999888639492426  0.2221811862434109  0.7920086311362908
  0.6006419057026520  0.5552187787451714  0.1252143394264706
  0.6017539503016778  0.5543112194992972  0.4580802830907587
  0.6001518091146067  0.5554123655960979  0.7933269894395494
  0.6000948687532528  0.8890116540367359  0.1253745422693555
  0.6000370361405416  0.8894679901777209  0.4583804951217374
  0.5999854972675749  0.8888196907995365  0.7920880808179760
  0.8000822016717279  0.2220248900314274  0.1251783614251991
  0.8001355272304593  0.2219581332829961  0.4584605438804843
  0.8000094196046206  0.2221183773939543  0.7919292828467732
  0.8001722502946862  0.5553307091286044  0.1254028298835479
  0.8006635257396795  0.5549195595376659  0.4583210987555404
  0.8000262152141815  0.5554651425678330  0.7921421994612103
  0.8000494598915111  0.8888074855844792  0.1252238478496750
  0.8000079463270282  0.8887396205292362  0.4585228200050366
  0.7999873313446386  0.8888396166259938  0.7919326821848998
  0.0999026131746845  0.2774992510620251  0.2918695112761824
  0.0999661418737361  0.2775521657162727  0.6252846666548990
  0.0999503627932867  0.2775741487024703  0.9586951267124988
  0.0997680574262674  0.6110202598871979  0.2919847375804423
  0.1000174514883554  0.6109094023273656  0.6254115504902984
  0.0997792998993177  0.6111268172983131  0.9589905737746420
  0.0998202628416109  0.9443208830688476  0.2918026859612652
  0.0999902494417384  0.9442843972557995  0.6252316490997600
  0.0999502181007301  0.9443520675393131  0.9586066055911289
  0.2999193888115599  0.2772008201049942  0.2919644053338502
  0.2999852637859561  0.2778645687352963  0.6252549705643915
  0.2999790588545324  0.2774476695112824  0.9588624500411811
  0.2989531724935119  0.6113073897260222  0.2912545150216488
  0.2994367144795334  0.6108606930703360  0.6273246261898109
  0.3000516817842325  0.6109448490603526  0.9594680449616533
  0.3000214046646974  0.9441924301435947  0.2919943545119636
  0.3000089965686428  0.9443138843123080  0.6253569746015657
  0.2999714959403121  0.9443185205264228  0.9588038146314943
  0.5000806231884383  0.2772008201049942  0.2919644053338502
  0.5000147482140491  0.2778645687352963  0.6252549705643915
  0.5000209531454729  0.2774476695112824  0.9588624500411811
  0.5010468695064887  0.6113073897260222  0.2912545150216488
  0.5005632975204719  0.6108606930703360  0.6273246261898109
  0.4999483302157657  0.6109448490603526  0.9594680449616533
  0.4999785773352983  0.9441924301435947  0.2919943545119636
  0.4999910154313554  0.9443138843123080  0.6253569746015657
  0.5000285160596860  0.9443185205264228  0.9588038146314943
  0.7000973768253118  0.2774992510620251  0.2918695112761824
  0.7000338181262649  0.2775521657162727  0.6252846666548990
  0.7000496042067113  0.2775741487024703  0.9586951267124988
  0.7002319095737306  0.6110202598871979  0.2919847375804423
  0.6999825085116385  0.6109094023273656  0.6254115504902984
  0.7002206741006844  0.6111268172983131  0.9589905737746420
  0.7001797191583918  0.9443208830688476  0.2918026859612652
  0.7000097255582602  0.9442843972557995  0.6252316490997600
  0.7000497638992726  0.9443520675393131  0.9586066055911289
  0.8999999759999966  0.2775339527722807  0.2918164800892669
  0.8999999759999966  0.2776031276217736  0.6252576498241069
  0.8999999759999966  0.2776422591833807  0.9585882008627706
  0.8999999759999966  0.6110609905364797  0.2918394863767659
  0.8999999759999966  0.6110547451817538  0.6253023322740958
  0.8999999759999966  0.6110616957631123  0.9587407263523460
  0.8999999759999966  0.9442804017730779  0.2918321841461164
  0.8999999759999966  0.9442320152567376  0.6251945799476601
  0.8999999759999966  0.9443493113649168  0.9585334736351783
  0.9999352647214792  0.1109011499308608  0.2917777587059263
  0.9999819139561623  0.1109047401199419  0.6251898037065047
  0.9999661397370829  0.1109624661629880  0.9585144289419247
  0.9999489655882741  0.4441968549364290  0.2919429468910835
  0.9999418903659745  0.4443372269903776  0.6253242675815258
  0.9999553365981981  0.4443381072946053  0.9587707644290475
  0.9998943909078548  0.7776768035781743  0.2919574601901758
  0.0000393474044103  0.7776181648151024  0.6252724735096180
  0.9999549938541108  0.7777365468452828  0.9586521547991964
  0.1999434563616589  0.1106914187081642  0.2918142760525058
  0.2000042435648623  0.1109507551916451  0.6252019163654339
  0.1999704759008551  0.1109325359143583  0.9586140079324039
  0.1998448390293817  0.4441530486993628  0.2919345759471028
  0.1998193765735650  0.4443105311389459  0.6259445279925444
  0.1998260762520871  0.4441549170836723  0.9591532038844903
  0.1995402736208050  0.7778467324954690  0.2919523828059880
  0.2001289617262216  0.7775988967008090  0.6252969758331659
  0.1998168099662792  0.7777641844390715  0.9589633341158788
  0.4000000059999991  0.1107809108947677  0.2919621704291941
  0.4000000059999991  0.1110995191808257  0.6252778373783983
  0.4000000059999991  0.1109076572964582  0.9586641639663043
  0.4000000059999991  0.4425177199238775  0.2920355375323709
  0.4000000059999991  0.4444838157437871  0.6258964655233825
  0.4000000059999991  0.4443334861950987  0.9593908357724956
  0.4000000059999991  0.7774605307933911  0.2922789832987363
  0.4000000059999991  0.7775990493891385  0.6262629949742902
  0.4000000059999991  0.7778190144988741  0.9591678554710725
  0.6000565556383464  0.1106914187081642  0.2918142760525058
  0.5999957984351383  0.1109507551916451  0.6252019163654339
  0.6000295660991455  0.1109325359143583  0.9586140079324039
  0.6001552029706190  0.4441530486993628  0.2919345759471028
  0.6001806804264405  0.4443105311389459  0.6259445279925444
  0.6001739657479135  0.4441549170836723  0.9591532038844903
  0.6004597383791932  0.7778467324954690  0.2919523828059880
  0.5998710352737788  0.7775988967008090  0.6252969758331659
  0.6001832170337238  0.7777641844390715  0.9589633341158788
  0.8000647472785261  0.1109011499308608  0.2917777587059263
  0.8000181270438347  0.1109047401199419  0.6251898037065047
  0.8000338622629144  0.1109624661629880  0.9585144289419247
  0.8000510464117241  0.4441968549364290  0.2919429468910835
  0.8000581426340219  0.4443372269903776  0.6253242675815258
  0.8000446744018035  0.4443381072946053  0.9587707644290475
  0.8001056130921427  0.7776768035781743  0.2919574601901758
  0.7999606365955927  0.7776181648151024  0.6252724735096180
  0.8000450271458917  0.7777365468452828  0.9586521547991964
  0.4000000059999991  0.5779735129894661  0.4503346562152402
  0.4000000059999991  0.6367107554883020  0.4332821274591723
 
  0.00000000E+00  0.00000000E+00  0.00000000E+00
  0.00000000E+00  0.00000000E+00  0.00000000E+00
  0.00000000E+00  0.00000000E+00  0.00000000E+00
  0.00000000E+00  0.00000000E+00  0.00000000E+00
  0.00000000E+00  0.00000000E+00  0.00000000E+00
  0.00000000E+00  0.00000000E+00  0.00000000E+00
  0.00000000E+00  0.00000000E+00  0.00000000E+00
  0.00000000E+00  0.00000000E+00  0.00000000E+00
  0.00000000E+00  0.00000000E+00  0.00000000E+00
  0.00000000E+00  0.00000000E+00  0.00000000E+00
  0.00000000E+00  0.00000000E+00  0.00000000E+00
  0.00000000E+00  0.00000000E+00  0.00000000E+00
  0.00000000E+00  0.00000000E+00  0.00000000E+00
  0.00000000E+00  0.00000000E+00  0.00000000E+00
  0.00000000E+00  0.00000000E+00  0.00000000E+00
  0.00000000E+00  0.00000000E+00  0.00000000E+00
  0.00000000E+00  0.00000000E+00  0.00000000E+00
  0.00000000E+00  0.00000000E+00  0.00000000E+00
  0.00000000E+00  0.00000000E+00  0.00000000E+00
  0.00000000E+00  0.00000000E+00  0.00000000E+00
  0.00000000E+00  0.00000000E+00  0.00000000E+00
  0.00000000E+00  0.00000000E+00  0.00000000E+00
  0.00000000E+00  0.00000000E+00  0.00000000E+00
  0.00000000E+00  0.00000000E+00  0.00000000E+00
  0.00000000E+00  0.00000000E+00  0.00000000E+00
  0.00000000E+00  0.00000000E+00  0.00000000E+00
  0.00000000E+00  0.00000000E+00  0.00000000E+00
  0.00000000E+00  0.00000000E+00  0.00000000E+00
  0.00000000E+00  0.00000000E+00  0.00000000E+00
  0.00000000E+00  0.00000000E+00  0.00000000E+00
  0.00000000E+00  0.00000000E+00  0.00000000E+00
  0.00000000E+00  0.00000000E+00  0.00000000E+00
  0.00000000E+00  0.00000000E+00  0.00000000E+00
  0.00000000E+00  0.00000000E+00  0.00000000E+00
  0.00000000E+00  0.00000000E+00  0.00000000E+00
  0.00000000E+00  0.00000000E+00  0.00000000E+00
  0.00000000E+00  0.00000000E+00  0.00000000E+00
  0.00000000E+00  0.00000000E+00  0.00000000E+00
  0.00000000E+00  0.00000000E+00  0.00000000E+00
  0.00000000E+00  0.00000000E+00  0.00000000E+00
  0.00000000E+00  0.00000000E+00  0.00000000E+00
  0.00000000E+00  0.00000000E+00  0.00000000E+00
  0.00000000E+00  0.00000000E+00  0.00000000E+00
  0.00000000E+00  0.00000000E+00  0.00000000E+00
  0.00000000E+00  0.00000000E+00  0.00000000E+00
  0.00000000E+00  0.00000000E+00  0.00000000E+00
  0.00000000E+00  0.00000000E+00  0.00000000E+00
  0.00000000E+00  0.00000000E+00  0.00000000E+00
  0.00000000E+00  0.00000000E+00  0.00000000E+00
  0.00000000E+00  0.00000000E+00  0.00000000E+00
  0.00000000E+00  0.00000000E+00  0.00000000E+00
  0.00000000E+00  0.00000000E+00  0.00000000E+00
  0.00000000E+00  0.00000000E+00  0.00000000E+00
  0.00000000E+00  0.00000000E+00  0.00000000E+00
  0.00000000E+00  0.00000000E+00  0.00000000E+00
  0.00000000E+00  0.00000000E+00  0.00000000E+00
  0.00000000E+00  0.00000000E+00  0.00000000E+00
  0.00000000E+00  0.00000000E+00  0.00000000E+00
  0.00000000E+00  0.00000000E+00  0.00000000E+00
  0.00000000E+00  0.00000000E+00  0.00000000E+00
  0.00000000E+00  0.00000000E+00  0.00000000E+00
  0.00000000E+00  0.00000000E+00  0.00000000E+00
  0.00000000E+00  0.00000000E+00  0.00000000E+00
  0.00000000E+00  0.00000000E+00  0.00000000E+00
  0.00000000E+00  0.00000000E+00  0.00000000E+00
  0.00000000E+00  0.00000000E+00  0.00000000E+00
  0.00000000E+00  0.00000000E+00  0.00000000E+00
  0.00000000E+00  0.00000000E+00  0.00000000E+00
  0.00000000E+00  0.00000000E+00  0.00000000E+00
  0.00000000E+00  0.00000000E+00  0.00000000E+00
  0.00000000E+00  0.00000000E+00  0.00000000E+00
  0.00000000E+00  0.00000000E+00  0.00000000E+00
  0.00000000E+00  0.00000000E+00  0.00000000E+00
  0.00000000E+00  0.00000000E+00  0.00000000E+00
  0.00000000E+00  0.00000000E+00  0.00000000E+00
  0.00000000E+00  0.00000000E+00  0.00000000E+00
  0.00000000E+00  0.00000000E+00  0.00000000E+00
  0.00000000E+00  0.00000000E+00  0.00000000E+00
  0.00000000E+00  0.00000000E+00  0.00000000E+00
  0.00000000E+00  0.00000000E+00  0.00000000E+00
  0.00000000E+00  0.00000000E+00  0.00000000E+00
  0.00000000E+00  0.00000000E+00  0.00000000E+00
  0.00000000E+00  0.00000000E+00  0.00000000E+00
  0.00000000E+00  0.00000000E+00  0.00000000E+00
  0.00000000E+00  0.00000000E+00  0.00000000E+00
  0.00000000E+00  0.00000000E+00  0.00000000E+00
  0.00000000E+00  0.00000000E+00  0.00000000E+00
  0.00000000E+00  0.00000000E+00  0.00000000E+00
  0.00000000E+00  0.00000000E+00  0.00000000E+00
  0.00000000E+00  0.00000000E+00  0.00000000E+00
  0.00000000E+00  0.00000000E+00  0.00000000E+00
  0.00000000E+00  0.00000000E+00  0.00000000E+00
  0.00000000E+00  0.00000000E+00  0.00000000E+00
  0.00000000E+00  0.00000000E+00  0.00000000E+00
  0.00000000E+00  0.00000000E+00  0.00000000E+00
  0.00000000E+00  0.00000000E+00  0.00000000E+00
  0.00000000E+00  0.00000000E+00  0.00000000E+00
  0.00000000E+00  0.00000000E+00  0.00000000E+00
  0.00000000E+00  0.00000000E+00  0.00000000E+00
  0.00000000E+00  0.00000000E+00  0.00000000E+00
  0.00000000E+00  0.00000000E+00  0.00000000E+00
  0.00000000E+00  0.00000000E+00  0.00000000E+00
  0.00000000E+00  0.00000000E+00  0.00000000E+00
  0.00000000E+00  0.00000000E+00  0.00000000E+00
  0.00000000E+00  0.00000000E+00  0.00000000E+00
  0.00000000E+00  0.00000000E+00  0.00000000E+00
  0.00000000E+00  0.00000000E+00  0.00000000E+00
  0.00000000E+00  0.00000000E+00  0.00000000E+00
  0.00000000E+00  0.00000000E+00  0.00000000E+00
  0.00000000E+00  0.00000000E+00  0.00000000E+00
  0.00000000E+00  0.00000000E+00  0.00000000E+00
  0.00000000E+00  0.00000000E+00  0.00000000E+00
  0.00000000E+00  0.00000000E+00  0.00000000E+00
  0.00000000E+00  0.00000000E+00  0.00000000E+00
  0.00000000E+00  0.00000000E+00  0.00000000E+00
  0.00000000E+00  0.00000000E+00  0.00000000E+00
  0.00000000E+00  0.00000000E+00  0.00000000E+00
  0.00000000E+00  0.00000000E+00  0.00000000E+00
  0.00000000E+00  0.00000000E+00  0.00000000E+00
  0.00000000E+00  0.00000000E+00  0.00000000E+00
  0.00000000E+00  0.00000000E+00  0.00000000E+00
  0.00000000E+00  0.00000000E+00  0.00000000E+00
  0.00000000E+00  0.00000000E+00  0.00000000E+00
  0.00000000E+00  0.00000000E+00  0.00000000E+00
  0.00000000E+00  0.00000000E+00  0.00000000E+00
  0.00000000E+00  0.00000000E+00  0.00000000E+00
  0.00000000E+00  0.00000000E+00  0.00000000E+00
  0.00000000E+00  0.00000000E+00  0.00000000E+00
  0.00000000E+00  0.00000000E+00  0.00000000E+00
  0.00000000E+00  0.00000000E+00  0.00000000E+00
  0.00000000E+00  0.00000000E+00  0.00000000E+00
  0.00000000E+00  0.00000000E+00  0.00000000E+00
  0.00000000E+00  0.00000000E+00  0.00000000E+00
  0.00000000E+00  0.00000000E+00  0.00000000E+00
  0.00000000E+00  0.00000000E+00  0.00000000E+00
  0.00000000E+00  0.00000000E+00  0.00000000E+00
  0.00000000E+00  0.00000000E+00  0.00000000E+00
  0.00000000E+00  0.00000000E+00  0.00000000E+00
  0.00000000E+00  0.00000000E+00  0.00000000E+00
  0.00000000E+00  0.00000000E+00  0.00000000E+00
  0.00000000E+00  0.00000000E+00  0.00000000E+00
  0.00000000E+00  0.00000000E+00  0.00000000E+00
  0.00000000E+00  0.00000000E+00  0.00000000E+00
  0.00000000E+00  0.00000000E+00  0.00000000E+00
  0.00000000E+00  0.00000000E+00  0.00000000E+00
  0.00000000E+00  0.00000000E+00  0.00000000E+00
  0.00000000E+00  0.00000000E+00  0.00000000E+00
  0.00000000E+00  0.00000000E+00  0.00000000E+00
  0.00000000E+00  0.00000000E+00  0.00000000E+00
  0.00000000E+00  0.00000000E+00  0.00000000E+00
  0.00000000E+00  0.00000000E+00  0.00000000E+00
  0.00000000E+00  0.00000000E+00  0.00000000E+00
  0.00000000E+00  0.00000000E+00  0.00000000E+00
  0.00000000E+00  0.00000000E+00  0.00000000E+00
  0.00000000E+00  0.00000000E+00  0.00000000E+00
  0.00000000E+00  0.00000000E+00  0.00000000E+00