GaN                                     
   1.00000000000000     
     9.6000003814999992    0.0000000000000000    0.0000000000000000
     0.0000000000000000   11.0851259231999997    0.0000000000000000
     0.0000000000000000    0.0000000000000000   10.3800001143999996
   Ga   N 
    48    48
Direct
  0.9999999873558494  0.1667680327141809  0.0002628250572414
  0.9999999986805364  0.1667680275574241  0.5002627853497756
  0.0000000085336822  0.6667680392600346  0.0002628054457503
  0.0000000208489936  0.6667680460633676  0.5002628061487115
  0.3333522884004410  0.1667679112527622  0.0002625807429197
  0.3333523091312713  0.1667679263114863  0.5002625988814700
  0.3333523042185931  0.6667679076002102  0.0002625952211730
  0.3333522959018538  0.6667678960535426  0.5002625999319434
  0.6666477258710657  0.1667679083267899  0.0002626218888935
  0.6666476928365128  0.1667679252393697  0.5002625708110315
  0.6666476823626581  0.6667679187703541  0.0002625981539666
  0.6666476858909078  0.6667679101460351  0.5002625810653001
  0.9999999848079781  0.3332319337161351  0.2502626292801224
  0.0000000165776513  0.3332319550154423  0.7502626596093123
  0.9999999766934522  0.8332319596283071  0.2502626556148400
  0.9999999991618154  0.8332319519202827  0.7502626492764790
  0.3333523208046500  0.3332320835934226  0.2502624448869213
  0.3333523055170886  0.3332320768899706  0.7502624038296801
  0.3333523137150607  0.8332320565684483  0.2502624231889143
  0.3333523043543494  0.8332320534758324  0.7502624243771692
  0.6666476949718572  0.3332320588758293  0.2502624400497240
  0.6666476692279559  0.3332320715732635  0.7502624159135038
  0.6666477075683588  0.8332320778954241  0.2502624117641901
  0.6666476943111519  0.8332320734341394  0.7502624431428302
  0.1666476653674565  0.0832321987530662  0.2502624507262681
  0.1666476981867433  0.0832321820267907  0.7502624440398122
  0.1666476966083650  0.5832321813727859  0.2502624578405204
  0.1666477074168284  0.5832321830792324  0.7502624476448787
  0.5000000207647375  0.0832320826707118  0.2502626530706920
  0.4999999890082307  0.0832320726564291  0.7502626349489674
  0.4999999942812821  0.5832320574130421  0.2502626478038081
  0.4999999728054192  0.5832320623029545  0.7502626517983302
  0.8333523099422209  0.0832321801640958  0.2502624400293314
  0.8333523182913609  0.0832321812813674  0.7502624673640241
  0.8333523079538168  0.5832321678889230  0.2502624380836167
  0.8333523216630070  0.5832321918464345  0.7502624578775681
  0.1666476705452595  0.4167678500989140  0.0002630026171815
  0.1666476939426786  0.4167678517357913  0.5002630089775195
  0.1666476726086046  0.9167678384974636  0.0002630029820949
  0.1666476703727398  0.9167678327951023  0.5002630211739714
  0.5000000095306163  0.4167679693203326  0.0002632203696820
  0.4999999943715636  0.4167679508759150  0.5002632050665099
  0.5000000117872929  0.9167679353377949  0.0002632070556601
  0.4999999997391953  0.9167679613331430  0.5002631982033208
  0.8333523278718857  0.4167678331878832  0.0002630329300217
  0.8333523098448552  0.4167678315439787  0.5002629947601278
  0.8333523153183364  0.9167678467191749  0.0002630307225004
  0.8333523299853738  0.9167678421004268  0.5002629938649008
  0.0000000021033344  0.1666324249122368  0.1892012463511605
  0.0000000025774867  0.1666324298940722  0.6892012236885847
  0.0000000001964651  0.6666324392582084  0.1892012347425549
  0.0000000010668515  0.6666324319507027  0.6892012383745580
  0.3334436205876372  0.1666324161359896  0.1891994492534508
  0.3334436213634433  0.1666324196947642  0.6891994788800417
  0.3334436223115773  0.6666324033932938  0.1891994670397708
  0.3334436292965606  0.6666324142943196  0.6891994655822273
  0.6665563794625413  0.1666324131027892  0.1891994701971456
  0.6665563843406872  0.1666324105704007  0.6891994682656417
  0.6665563729651041  0.6666324190627577  0.1891994696864998
  0.6665563671504344  0.6666324170072357  0.6891994756590805
  0.0000000013495693  0.3333675964838250  0.4391755973590605
  0.9999999954217671  0.3333675920996129  0.9391756016722255
  0.0000000006608545  0.8333676003836672  0.4391755993571564
  0.9999999880598409  0.8333675915374670  0.9391755989778545
  0.3334435870840480  0.3333676175620042  0.4391738414585333
  0.3334436102085547  0.3333676161525574  0.9391738266814755
  0.3334435921013963  0.8333676169558828  0.4391738379738541
  0.3334435991755882  0.8333676196425159  0.9391738397643365
  0.6665564074528589  0.3333676196099447  0.4391738467296022
  0.6665564045930736  0.3333676176264646  0.9391738226920410
  0.6665564055045010  0.8333676129416361  0.4391738251988144
  0.6665564161619741  0.8333676226687032  0.9391738318465173
  0.1665563940768280  0.4166256686446346  0.1891997404858472
  0.1665563957145082  0.4166256714414374  0.6891997634278439
  0.1665564004717623  0.9166256771360466  0.1891997519939821
  0.1665564046684338  0.9166256799256374  0.6891997632020050
  0.5000000078903781  0.4166256770937693  0.1892015185194325
  0.5000000020049882  0.4166256816357006  0.6892015387619566
  0.4999999967394686  0.9166256878413819  0.1892015344818532
  0.5000000052049174  0.9166256798636354  0.6892015300483862
  0.8334435976944690  0.4166256630442078  0.1891997565725418
  0.8334435958660436  0.4166256682280007  0.6891997542707458
  0.8334435995387395  0.9166256710022296  0.1891997583450475
  0.8334435888696206  0.9166256757393185  0.6891997399648773
  0.1665564132648640  0.0833742728463776  0.4391738179905076
  0.1665564004175550  0.0833742927191707  0.9391738076838791
  0.1665563940249513  0.5833742962583415  0.4391738099719475
  0.1665563983124514  0.5833742966602173  0.9391738138335413
  0.4999999905923573  0.0833742878302459  0.4391755913672384
  0.5000000028243505  0.0833742851044121  0.9391755753395898
  0.5000000019190125  0.5833742907899406  0.4391755772812616
  0.5000000032407357  0.5833742830230690  0.9391755716647623
  0.8334435932568525  0.0833742820211612  0.4391738156211815
  0.8334435969883387  0.0833742798277228  0.9391738114831938
  0.8334436093620141  0.5833742951010521  0.4391738177670703
  0.8334435999086196  0.5833742803973863  0.9391738289059646
 
  0.00000000E+00  0.00000000E+00  0.00000000E+00
  0.00000000E+00  0.00000000E+00  0.00000000E+00
  0.00000000E+00  0.00000000E+00  0.00000000E+00
  0.00000000E+00  0.00000000E+00  0.00000000E+00
  0.00000000E+00  0.00000000E+00  0.00000000E+00
  0.00000000E+00  0.00000000E+00  0.00000000E+00
  0.00000000E+00  0.00000000E+00  0.00000000E+00
  0.00000000E+00  0.00000000E+00  0.00000000E+00
  0.00000000E+00  0.00000000E+00  0.00000000E+00
  0.00000000E+00  0.00000000E+00  0.00000000E+00
  0.00000000E+00  0.00000000E+00  0.00000000E+00
  0.00000000E+00  0.00000000E+00  0.00000000E+00
  0.00000000E+00  0.00000000E+00  0.00000000E+00
  0.00000000E+00  0.00000000E+00  0.00000000E+00
  0.00000000E+00  0.00000000E+00  0.00000000E+00
  0.00000000E+00  0.00000000E+00  0.00000000E+00
  0.00000000E+00  0.00000000E+00  0.00000000E+00
  0.00000000E+00  0.00000000E+00  0.00000000E+00
  0.00000000E+00  0.00000000E+00  0.00000000E+00
  0.00000000E+00  0.00000000E+00  0.00000000E+00
  0.00000000E+00  0.00000000E+00  0.00000000E+00
  0.00000000E+00  0.00000000E+00  0.00000000E+00
  0.00000000E+00  0.00000000E+00  0.00000000E+00
  0.00000000E+00  0.00000000E+00  0.00000000E+00
  0.00000000E+00  0.00000000E+00  0.00000000E+00
  0.00000000E+00  0.00000000E+00  0.00000000E+00
  0.00000000E+00  0.00000000E+00  0.00000000E+00
  0.00000000E+00  0.00000000E+00  0.00000000E+00
  0.00000000E+00  0.00000000E+00  0.00000000E+00
  0.00000000E+00  0.00000000E+00  0.00000000E+00
  0.00000000E+00  0.00000000E+00  0.00000000E+00
  0.00000000E+00  0.00000000E+00  0.00000000E+00
  0.00000000E+00  0.00000000E+00  0.00000000E+00
  0.00000000E+00  0.00000000E+00  0.00000000E+00
  0.00000000E+00  0.00000000E+00  0.00000000E+00
  0.00000000E+00  0.00000000E+00  0.00000000E+00
  0.00000000E+00  0.00000000E+00  0.00000000E+00
  0.00000000E+00  0.00000000E+00  0.00000000E+00
  0.00000000E+00  0.00000000E+00  0.00000000E+00
  0.00000000E+00  0.00000000E+00  0.00000000E+00
  0.00000000E+00  0.00000000E+00  0.00000000E+00
  0.00000000E+00  0.00000000E+00  0.00000000E+00
  0.00000000E+00  0.00000000E+00  0.00000000E+00
  0.00000000E+00  0.00000000E+00  0.00000000E+00
  0.00000000E+00  0.00000000E+00  0.00000000E+00
  0.00000000E+00  0.00000000E+00  0.00000000E+00
  0.00000000E+00  0.00000000E+00  0.00000000E+00
  0.00000000E+00  0.00000000E+00  0.00000000E+00
  0.00000000E+00  0.00000000E+00  0.00000000E+00
  0.00000000E+00  0.00000000E+00  0.00000000E+00
  0.00000000E+00  0.00000000E+00  0.00000000E+00
  0.00000000E+00  0.00000000E+00  0.00000000E+00
  0.00000000E+00  0.00000000E+00  0.00000000E+00
  0.00000000E+00  0.00000000E+00  0.00000000E+00
  0.00000000E+00  0.00000000E+00  0.00000000E+00
  0.00000000E+00  0.00000000E+00  0.00000000E+00
  0.00000000E+00  0.00000000E+00  0.00000000E+00
  0.00000000E+00  0.00000000E+00  0.00000000E+00
  0.00000000E+00  0.00000000E+00  0.00000000E+00
  0.00000000E+00  0.00000000E+00  0.00000000E+00
  0.00000000E+00  0.00000000E+00  0.00000000E+00
  0.00000000E+00  0.00000000E+00  0.00000000E+00
  0.00000000E+00  0.00000000E+00  0.00000000E+00
  0.00000000E+00  0.00000000E+00  0.00000000E+00
  0.00000000E+00  0.00000000E+00  0.00000000E+00
  0.00000000E+00  0.00000000E+00  0.00000000E+00
  0.00000000E+00  0.00000000E+00  0.00000000E+00
  0.00000000E+00  0.00000000E+00  0.00000000E+00
  0.00000000E+00  0.00000000E+00  0.00000000E+00
  0.00000000E+00  0.00000000E+00  0.00000000E+00
  0.00000000E+00  0.00000000E+00  0.00000000E+00
  0.00000000E+00  0.00000000E+00  0.00000000E+00
  0.00000000E+00  0.00000000E+00  0.00000000E+00
  0.00000000E+00  0.00000000E+00  0.00000000E+00
  0.00000000E+00  0.00000000E+00  0.00000000E+00
  0.00000000E+00  0.00000000E+00  0.00000000E+00
  0.00000000E+00  0.00000000E+00  0.00000000E+00
  0.00000000E+00  0.00000000E+00  0.00000000E+00
  0.00000000E+00  0.00000000E+00  0.00000000E+00
  0.00000000E+00  0.00000000E+00  0.00000000E+00
  0.00000000E+00  0.00000000E+00  0.00000000E+00
  0.00000000E+00  0.00000000E+00  0.00000000E+00
  0.00000000E+00  0.00000000E+00  0.00000000E+00
  0.00000000E+00  0.00000000E+00  0.00000000E+00
  0.00000000E+00  0.00000000E+00  0.00000000E+00
  0.00000000E+00  0.00000000E+00  0.00000000E+00
  0.00000000E+00  0.00000000E+00  0.00000000E+00
  0.00000000E+00  0.00000000E+00  0.00000000E+00
  0.00000000E+00  0.00000000E+00  0.00000000E+00
  0.00000000E+00  0.00000000E+00  0.00000000E+00
  0.00000000E+00  0.00000000E+00  0.00000000E+00
  0.00000000E+00  0.00000000E+00  0.00000000E+00
  0.00000000E+00  0.00000000E+00  0.00000000E+00
  0.00000000E+00  0.00000000E+00  0.00000000E+00
  0.00000000E+00  0.00000000E+00  0.00000000E+00
  0.00000000E+00  0.00000000E+00  0.00000000E+00
