SYSTEM = GaN_CN

! How to initialize charge density and wave functions
ISTART = 1        ! 0 to start a new job, 1 for continuing and reading in wf
ICHARG = 1        ! 2 to start a new job, 1 for continuing and reading in chg
INIWAV = 1        ! chooses initially random wf, numerically best

! Electronic control flags
ENCUT  = 400      ! cutoff energy
EDIFF  = 1E-7     ! convergence threshold
PREC   = Normal   ! numerical precision
!ALGO = Normal
ALGO   = Damped  
!LDIAG  = .FALSE.  ! keep orbitals order by switching off subspace diagonalization
NELMIN = 5        ! min electronic steps
NELM   = 50       ! max electronic steps

ISPIN  = 2        ! Spin polarized calculation: 1 = No, 2 = Yes
LMAXMIX = 4
ISYM = -1
TIME = 0.3     ! for Damped ALGO
!IMIX = 1
!AMIX = 0.1
!BMIX = 0.01

! Hybrid functional flags. Uncomment to run a hybrid calculation;
LHFCALC  = .TRUE. ! Turns on doing the hybrid functional
HFSCREEN = 0.2    ! Screening length, we won't adjust this
AEXX     = 0.31   ! This is the amount of exact exchanged mixed in, we'll need to check
PRECFOCK = Fast

! Parallelization flags
NCORE = 16        ! Band parallelization, 16 is good for PBE, 4 is good for HSE
KPAR  = 1         ! Set to number of k-point blocks (remember to multiply nodes/procs in jobscript)

! Ionic control flags
EDIFFG = -1E-2    ! Convergence for ionic relaxation
NSW = 50         ! Number of ionic steps per relaxation job
IBRION = 2       ! Relaxation algorithm, -1 is off, 2 is conjugate gradient
ISIF = 2          ! What to relax. 2 does just the internal DOF, 3 does the lattice vectors too

! Electronic broadening
ISMEAR = 0        ! 0 is Gaussian broadening
SIGMA  = 0.01     ! amount of broadening

!ISMEAR = -2
!FERWE = 432*1 144*0
!FERDO = 428*1 1 0.5 0.5 1 144*0
NBANDS = 576

LWAVE  = .TRUE.   ! write out wavefunctions
LCHARG = .TRUE.   ! write out chargedensity
LVTOT  = .FALSE.  ! write out full potential
LVHAR  = .FALSE.  ! write out electrostatic potential

