GaN
1.0
       15.8909244537         0.0000000000         0.0000000000
        0.0000000000        16.5143318176         0.0000000000
        0.0000000000         0.0000000000        15.4982528687
   Ga    N
  180  180
Direct
     0.100000001         0.055555556         0.332953274
     0.100000001         0.055555556         0.666286588
     0.100000001         0.055555556         0.999619961
     0.100000001         0.388888896         0.332953274
     0.100000001         0.388888896         0.666286588
     0.100000001         0.388888896         0.999619961
     0.100000001         0.722222209         0.332953274
     0.100000001         0.722222209         0.666286588
     0.100000001         0.722222209         0.999619961
     0.300000012         0.055555556         0.332953274
     0.300000012         0.055555556         0.666286588
     0.300000012         0.055555556         0.999619961
     0.300000012         0.388888896         0.332953274
     0.300000012         0.388888896         0.666286588
     0.300000012         0.388888896         0.999619961
     0.300000012         0.722222209         0.332953274
     0.300000012         0.722222209         0.666286588
     0.300000012         0.722222209         0.999619961
     0.500000000         0.055555556         0.332953274
     0.500000000         0.055555556         0.666286588
     0.500000000         0.055555556         0.999619961
     0.500000000         0.388888896         0.332953274
     0.500000000         0.388888896         0.666286588
     0.500000000         0.388888896         0.999619961
     0.500000000         0.722222209         0.332953274
     0.500000000         0.722222209         0.666286588
     0.500000000         0.722222209         0.999619961
     0.699999988         0.055555556         0.332953274
     0.699999988         0.055555556         0.666286588
     0.699999988         0.055555556         0.999619961
     0.699999988         0.388888896         0.332953274
     0.699999988         0.388888896         0.666286588
     0.699999988         0.388888896         0.999619961
     0.699999988         0.722222209         0.332953274
     0.699999988         0.722222209         0.666286588
     0.699999988         0.722222209         0.999619961
     0.899999976         0.055555556         0.332953274
     0.899999976         0.055555556         0.666286588
     0.899999976         0.055555556         0.999619961
     0.899999976         0.388888896         0.332953274
     0.899999976         0.388888896         0.666286588
     0.899999976         0.388888896         0.999619961
     0.899999976         0.722222209         0.332953274
     0.899999976         0.722222209         0.666286588
     0.899999976         0.722222209         0.999619961
     0.000000000         0.222222224         0.332953274
     0.000000000         0.222222224         0.666286588
     0.000000000         0.222222224         0.999619961
     0.000000000         0.555555582         0.332953274
     0.000000000         0.555555582         0.666286588
     0.000000000         0.555555582         0.999619961
     0.000000000         0.888888896         0.332953274
     0.000000000         0.888888896         0.666286588
     0.000000000         0.888888896         0.999619961
     0.200000003         0.222222224         0.332953274
     0.200000003         0.222222224         0.666286588
     0.200000003         0.222222224         0.999619961
     0.200000003         0.555555582         0.332953274
     0.200000003         0.555555582         0.666286588
     0.200000003         0.555555582         0.999619961
     0.200000003         0.888888896         0.332953274
     0.200000003         0.888888896         0.666286588
     0.200000003         0.888888896         0.999619961
     0.400000006         0.222222224         0.332953274
     0.400000006         0.222222224         0.666286588
     0.400000006         0.222222224         0.999619961
     0.400000006         0.555555582         0.332953274
     0.400000006         0.555555582         0.666286588
     0.400000006         0.555555582         0.999619961
     0.400000006         0.888888896         0.332953274
     0.400000006         0.888888896         0.666286588
     0.400000006         0.888888896         0.999619961
     0.600000024         0.222222224         0.332953274
     0.600000024         0.222222224         0.666286588
     0.600000024         0.222222224         0.999619961
     0.600000024         0.555555582         0.332953274
     0.600000024         0.555555582         0.666286588
     0.600000024         0.555555582         0.999619961
     0.600000024         0.888888896         0.332953274
     0.600000024         0.888888896         0.666286588
     0.600000024         0.888888896         0.999619961
     0.800000012         0.222222224         0.332953274
     0.800000012         0.222222224         0.666286588
     0.800000012         0.222222224         0.999619961
     0.800000012         0.555555582         0.332953274
     0.800000012         0.555555582         0.666286588
     0.800000012         0.555555582         0.999619961
     0.800000012         0.888888896         0.332953274
     0.800000012         0.888888896         0.666286588
     0.800000012         0.888888896         0.999619961
     0.100000001         0.277777761         0.166286603
     0.100000001         0.277777761         0.499619931
     0.100000001         0.277777761         0.832953274
     0.100000001         0.611111104         0.166286603
     0.100000001         0.611111104         0.499619931
     0.100000001         0.611111104         0.832953274
     0.100000001         0.944444418         0.166286603
     0.100000001         0.944444418         0.499619931
     0.100000001         0.944444418         0.832953274
     0.300000012         0.277777761         0.166286603
     0.300000012         0.277777761         0.499619931
     0.300000012         0.277777761         0.832953274
     0.300000012         0.611111104         0.166286603
     0.300000012         0.611111104         0.499619931
     0.300000012         0.611111104         0.832953274
     0.300000012         0.944444418         0.166286603
     0.300000012         0.944444418         0.499619931
     0.300000012         0.944444418         0.832953274
     0.500000000         0.277777761         0.166286603
     0.500000000         0.277777761         0.499619931
     0.500000000         0.277777761         0.832953274
     0.500000000         0.611111104         0.166286603
     0.500000000         0.611111104         0.499619931
     0.500000000         0.611111104         0.832953274
     0.500000000         0.944444418         0.166286603
     0.500000000         0.944444418         0.499619931
     0.500000000         0.944444418         0.832953274
     0.699999988         0.277777761         0.166286603
     0.699999988         0.277777761         0.499619931
     0.699999988         0.277777761         0.832953274
     0.699999988         0.611111104         0.166286603
     0.699999988         0.611111104         0.499619931
     0.699999988         0.611111104         0.832953274
     0.699999988         0.944444418         0.166286603
     0.699999988         0.944444418         0.499619931
     0.699999988         0.944444418         0.832953274
     0.899999976         0.277777761         0.166286603
     0.899999976         0.277777761         0.499619931
     0.899999976         0.277777761         0.832953274
     0.899999976         0.611111104         0.166286603
     0.899999976         0.611111104         0.499619931
     0.899999976         0.611111104         0.832953274
     0.899999976         0.944444418         0.166286603
     0.899999976         0.944444418         0.499619931
     0.899999976         0.944444418         0.832953274
     0.000000000         0.111111104         0.166286603
     0.000000000         0.111111104         0.499619931
     0.000000000         0.111111104         0.832953274
     0.000000000         0.444444448         0.166286603
     0.000000000         0.444444448         0.499619931
     0.000000000         0.444444448         0.832953274
     0.000000000         0.777777791         0.166286603
     0.000000000         0.777777791         0.499619931
     0.000000000         0.777777791         0.832953274
     0.200000003         0.111111104         0.166286603
     0.200000003         0.111111104         0.499619931
     0.200000003         0.111111104         0.832953274
     0.200000003         0.444444448         0.166286603
     0.200000003         0.444444448         0.499619931
     0.200000003         0.444444448         0.832953274
     0.200000003         0.777777791         0.166286603
     0.200000003         0.777777791         0.499619931
     0.200000003         0.777777791         0.832953274
     0.400000006         0.111111104         0.166286603
     0.400000006         0.111111104         0.499619931
     0.400000006         0.111111104         0.832953274
     0.400000006         0.444444448         0.166286603
     0.400000006         0.444444448         0.499619931
     0.400000006         0.444444448         0.832953274
     0.400000006         0.777777791         0.166286603
     0.400000006         0.777777791         0.499619931
     0.400000006         0.777777791         0.832953274
     0.600000024         0.111111104         0.166286603
     0.600000024         0.111111104         0.499619931
     0.600000024         0.111111104         0.832953274
     0.600000024         0.444444448         0.166286603
     0.600000024         0.444444448         0.499619931
     0.600000024         0.444444448         0.832953274
     0.600000024         0.777777791         0.166286603
     0.600000024         0.777777791         0.499619931
     0.600000024         0.777777791         0.832953274
     0.800000012         0.111111104         0.166286603
     0.800000012         0.111111104         0.499619931
     0.800000012         0.111111104         0.832953274
     0.800000012         0.444444448         0.166286603
     0.800000012         0.444444448         0.499619931
     0.800000012         0.444444448         0.832953274
     0.800000012         0.777777791         0.166286603
     0.800000012         0.777777791         0.499619931
     0.800000012         0.777777791         0.832953274
     0.100000001         0.055555556         0.125380054
     0.100000001         0.055555556         0.458713382
     0.100000001         0.055555556         0.792046726
     0.100000001         0.388888896         0.125380054
     0.100000001         0.388888896         0.458713382
     0.100000001         0.388888896         0.792046726
     0.100000001         0.722222209         0.125380054
     0.100000001         0.722222209         0.458713382
     0.100000001         0.722222209         0.792046726
     0.300000012         0.055555556         0.125380054
     0.300000012         0.055555556         0.458713382
     0.300000012         0.055555556         0.792046726
     0.300000012         0.388888896         0.125380054
     0.300000012         0.388888896         0.458713382
     0.300000012         0.388888896         0.792046726
     0.300000012         0.722222209         0.125380054
     0.300000012         0.722222209         0.458713382
     0.300000012         0.722222209         0.792046726
     0.500000000         0.055555556         0.125380054
     0.500000000         0.055555556         0.458713382
     0.500000000         0.055555556         0.792046726
     0.500000000         0.388888896         0.125380054
     0.500000000         0.388888896         0.458713382
     0.500000000         0.388888896         0.792046726
     0.500000000         0.722222209         0.125380054
     0.500000000         0.722222209         0.458713382
     0.500000000         0.722222209         0.792046726
     0.699999988         0.055555556         0.125380054
     0.699999988         0.055555556         0.458713382
     0.699999988         0.055555556         0.792046726
     0.699999988         0.388888896         0.125380054
     0.699999988         0.388888896         0.458713382
     0.699999988         0.388888896         0.792046726
     0.699999988         0.722222209         0.125380054
     0.699999988         0.722222209         0.458713382
     0.699999988         0.722222209         0.792046726
     0.899999976         0.055555556         0.125380054
     0.899999976         0.055555556         0.458713382
     0.899999976         0.055555556         0.792046726
     0.899999976         0.388888896         0.125380054
     0.899999976         0.388888896         0.458713382
     0.899999976         0.388888896         0.792046726
     0.899999976         0.722222209         0.125380054
     0.899999976         0.722222209         0.458713382
     0.899999976         0.722222209         0.792046726
     0.000000000         0.222222224         0.125380054
     0.000000000         0.222222224         0.458713382
     0.000000000         0.222222224         0.792046726
     0.000000000         0.555555582         0.125380054
     0.000000000         0.555555582         0.458713382
     0.000000000         0.555555582         0.792046726
     0.000000000         0.888888896         0.125380054
     0.000000000         0.888888896         0.458713382
     0.000000000         0.888888896         0.792046726
     0.200000003         0.222222224         0.125380054
     0.200000003         0.222222224         0.458713382
     0.200000003         0.222222224         0.792046726
     0.200000003         0.555555582         0.125380054
     0.200000003         0.555555582         0.458713382
     0.200000003         0.555555582         0.792046726
     0.200000003         0.888888896         0.125380054
     0.200000003         0.888888896         0.458713382
     0.200000003         0.888888896         0.792046726
     0.400000006         0.222222224         0.125380054
     0.400000006         0.222222224         0.458713382
     0.400000006         0.222222224         0.792046726
     0.400000006         0.555555582         0.125380054
     0.400000006         0.555555582         0.458713382
     0.400000006         0.555555582         0.792046726
     0.400000006         0.888888896         0.125380054
     0.400000006         0.888888896         0.458713382
     0.400000006         0.888888896         0.792046726
     0.600000024         0.222222224         0.125380054
     0.600000024         0.222222224         0.458713382
     0.600000024         0.222222224         0.792046726
     0.600000024         0.555555582         0.125380054
     0.600000024         0.555555582         0.458713382
     0.600000024         0.555555582         0.792046726
     0.600000024         0.888888896         0.125380054
     0.600000024         0.888888896         0.458713382
     0.600000024         0.888888896         0.792046726
     0.800000012         0.222222224         0.125380054
     0.800000012         0.222222224         0.458713382
     0.800000012         0.222222224         0.792046726
     0.800000012         0.555555582         0.125380054
     0.800000012         0.555555582         0.458713382
     0.800000012         0.555555582         0.792046726
     0.800000012         0.888888896         0.125380054
     0.800000012         0.888888896         0.458713382
     0.800000012         0.888888896         0.792046726
     0.100000001         0.277777761         0.292046726
     0.100000001         0.277777761         0.625380039
     0.100000001         0.277777761         0.958713412
     0.100000001         0.611111104         0.292046726
     0.100000001         0.611111104         0.625380039
     0.100000001         0.611111104         0.958713412
     0.100000001         0.944444418         0.292046726
     0.100000001         0.944444418         0.625380039
     0.100000001         0.944444418         0.958713412
     0.300000012         0.277777761         0.292046726
     0.300000012         0.277777761         0.625380039
     0.300000012         0.277777761         0.958713412
     0.300000012         0.611111104         0.292046726
     0.300000012         0.611111104         0.625380039
     0.300000012         0.611111104         0.958713412
     0.300000012         0.944444418         0.292046726
     0.300000012         0.944444418         0.625380039
     0.300000012         0.944444418         0.958713412
     0.500000000         0.277777761         0.292046726
     0.500000000         0.277777761         0.625380039
     0.500000000         0.277777761         0.958713412
     0.500000000         0.611111104         0.292046726
     0.500000000         0.611111104         0.625380039
     0.500000000         0.611111104         0.958713412
     0.500000000         0.944444418         0.292046726
     0.500000000         0.944444418         0.625380039
     0.500000000         0.944444418         0.958713412
     0.699999988         0.277777761         0.292046726
     0.699999988         0.277777761         0.625380039
     0.699999988         0.277777761         0.958713412
     0.699999988         0.611111104         0.292046726
     0.699999988         0.611111104         0.625380039
     0.699999988         0.611111104         0.958713412
     0.699999988         0.944444418         0.292046726
     0.699999988         0.944444418         0.625380039
     0.699999988         0.944444418         0.958713412
     0.899999976         0.277777761         0.292046726
     0.899999976         0.277777761         0.625380039
     0.899999976         0.277777761         0.958713412
     0.899999976         0.611111104         0.292046726
     0.899999976         0.611111104         0.625380039
     0.899999976         0.611111104         0.958713412
     0.899999976         0.944444418         0.292046726
     0.899999976         0.944444418         0.625380039
     0.899999976         0.944444418         0.958713412
     0.000000000         0.111111104         0.292046726
     0.000000000         0.111111104         0.625380039
     0.000000000         0.111111104         0.958713412
     0.000000000         0.444444448         0.292046726
     0.000000000         0.444444448         0.625380039
     0.000000000         0.444444448         0.958713412
     0.000000000         0.777777791         0.292046726
     0.000000000         0.777777791         0.625380039
     0.000000000         0.777777791         0.958713412
     0.200000003         0.111111104         0.292046726
     0.200000003         0.111111104         0.625380039
     0.200000003         0.111111104         0.958713412
     0.200000003         0.444444448         0.292046726
     0.200000003         0.444444448         0.625380039
     0.200000003         0.444444448         0.958713412
     0.200000003         0.777777791         0.292046726
     0.200000003         0.777777791         0.625380039
     0.200000003         0.777777791         0.958713412
     0.400000006         0.111111104         0.292046726
     0.400000006         0.111111104         0.625380039
     0.400000006         0.111111104         0.958713412
     0.400000006         0.444444448         0.292046726
     0.400000006         0.444444448         0.625380039
     0.400000006         0.444444448         0.958713412
     0.400000006         0.777777791         0.292046726
     0.400000006         0.777777791         0.625380039
     0.400000006         0.777777791         0.958713412
     0.600000024         0.111111104         0.292046726
     0.600000024         0.111111104         0.625380039
     0.600000024         0.111111104         0.958713412
     0.600000024         0.444444448         0.292046726
     0.600000024         0.444444448         0.625380039
     0.600000024         0.444444448         0.958713412
     0.600000024         0.777777791         0.292046726
     0.600000024         0.777777791         0.625380039
     0.600000024         0.777777791         0.958713412
     0.800000012         0.111111104         0.292046726
     0.800000012         0.111111104         0.625380039
     0.800000012         0.111111104         0.958713412
     0.800000012         0.444444448         0.292046726
     0.800000012         0.444444448         0.625380039
     0.800000012         0.444444448         0.958713412
     0.800000012         0.777777791         0.292046726
     0.800000012         0.777777791         0.625380039
     0.800000012         0.777777791         0.958713412
