GaN
1.0
        9.5345535278         0.0000000000         0.0000000000
       -3.1781837763         5.5047774691         0.0000000000
        0.0000000000         0.0000000000        10.3321676254
   Ga    N
   48   48
Direct
     0.111111000         0.333333492         0.499430001
     0.777777672         0.333333492         0.499430001
     0.777777672         0.333333492         0.999430001
     0.444444329         0.833333492         0.499430001
     0.444444329         0.833333492         0.999430001
     0.111111000         0.333333492         0.999430001
     0.777777672         0.833333492         0.499430001
     0.777777672         0.833333492         0.999430001
     0.111111000         0.833333492         0.499430001
     0.111111000         0.833333492         0.999430001
     0.444444329         0.333333492         0.499430001
     0.444444329         0.333333492         0.999430001
     0.777777672         0.333333492         0.499430001
     0.444444299         0.333333492         0.499430001
     0.444444299         0.333333492         0.999430001
     0.111111045         0.833333492         0.499430001
     0.111111045         0.833333492         0.999430001
     0.777777672         0.333333492         0.999430001
     0.444444299         0.833333492         0.499430001
     0.444444299         0.833333492         0.999430001
     0.777777672         0.833333492         0.499430001
     0.777777672         0.833333492         0.999430001
     0.111111045         0.333333492         0.499430001
     0.111111045         0.333333492         0.999430001
     0.888889015         0.666666508         0.249430001
     0.555555701         0.666666508         0.249430001
     0.555555701         0.666666508         0.749430001
     0.222222328         0.166666508         0.249430001
     0.222222328         0.166666508         0.749430001
     0.888889015         0.666666508         0.749430001
     0.555555701         0.166666508         0.249430001
     0.555555701         0.166666508         0.749430001
     0.888889015         0.166666508         0.249430001
     0.888889015         0.166666508         0.749430001
     0.222222328         0.666666508         0.249430001
     0.222222328         0.666666508         0.749430001
     0.888889015         0.166666493         0.249430001
     0.555555701         0.166666493         0.249430001
     0.555555701         0.166666493         0.749430001
     0.222222328         0.666666508         0.249430001
     0.222222328         0.666666508         0.749430001
     0.888889015         0.166666493         0.749430001
     0.555555701         0.666666508         0.249430001
     0.555555701         0.666666508         0.749430001
     0.888889015         0.666666508         0.249430001
     0.888889015         0.666666508         0.749430001
     0.222222328         0.166666493         0.249430001
     0.222222328         0.166666493         0.749430001
     0.111111000         0.333333492         0.188069999
     0.777777672         0.333333492         0.188069999
     0.777777672         0.333333492         0.688069999
     0.444444329         0.833333492         0.188069999
     0.444444329         0.833333492         0.688069999
     0.111111000         0.333333492         0.688069999
     0.777777672         0.833333492         0.188069999
     0.777777672         0.833333492         0.688069999
     0.111111000         0.833333492         0.188069999
     0.111111000         0.833333492         0.688069999
     0.444444329         0.333333492         0.188069999
     0.444444329         0.333333492         0.688069999
     0.777777672         0.333333492         0.188069999
     0.444444299         0.333333492         0.188069999
     0.444444299         0.333333492         0.688069999
     0.111111045         0.833333492         0.188069999
     0.111111045         0.833333492         0.688069999
     0.777777672         0.333333492         0.688069999
     0.444444299         0.833333492         0.188069999
     0.444444299         0.833333492         0.688069999
     0.777777672         0.833333492         0.188069999
     0.777777672         0.833333492         0.688069999
     0.111111045         0.333333492         0.188069999
     0.111111045         0.333333492         0.688069999
     0.888889015         0.666666508         0.438069999
     0.555555701         0.666666508         0.438069999
     0.555555701         0.666666508         0.938069999
     0.222222328         0.166666508         0.438069999
     0.222222328         0.166666508         0.938069999
     0.888889015         0.666666508         0.938069999
     0.555555701         0.166666508         0.438069999
     0.555555701         0.166666508         0.938069999
     0.888889015         0.166666508         0.438069999
     0.888889015         0.166666508         0.938069999
     0.222222328         0.666666508         0.438069999
     0.222222328         0.666666508         0.938069999
     0.888889015         0.166666493         0.438069999
     0.555555701         0.166666493         0.438069999
     0.555555701         0.166666493         0.938069999
     0.222222328         0.666666508         0.438069999
     0.222222328         0.666666508         0.938069999
     0.888889015         0.166666493         0.938069999
     0.555555701         0.666666508         0.438069999
     0.555555701         0.666666508         0.938069999
     0.888889015         0.666666508         0.438069999
     0.888889015         0.666666508         0.938069999
     0.222222328         0.166666493         0.438069999
     0.222222328         0.166666493         0.938069999
