GaN
1.0
        3.1781847477         0.0000000000         0.0000000000
        0.0000000000         5.5047774315         0.0000000000
        0.0000000000         0.0000000000         5.1660842896
   Ga    N
    4    4
Direct
     0.500000000         0.166666672         0.998859823
     0.000000000         0.666666687         0.998859823
     0.500000000         0.833333313         0.498859823
     0.000000000         0.333333313         0.498859823
     0.500000000         0.166666672         0.376140177
     0.000000000         0.666666687         0.376140177
     0.500000000         0.833333313         0.876140177
     0.000000000         0.333333313         0.876140177
