GaN
1.0
        9.5345544815         0.0000000000         0.0000000000
        0.0000000000        11.0095548630         0.0000000000
        0.0000000000         0.0000000000        10.3321685791
   Ga    N
   48   48
Direct
     0.166666672         0.083333336         0.499429911
     0.166666672         0.083333336         0.999429941
     0.166666672         0.583333313         0.499429911
     0.166666672         0.583333313         0.999429941
     0.500000000         0.083333336         0.499429911
     0.500000000         0.083333336         0.999429941
     0.500000000         0.583333313         0.499429911
     0.500000000         0.583333313         0.999429941
     0.833333313         0.083333336         0.499429911
     0.833333313         0.083333336         0.999429941
     0.833333313         0.583333313         0.499429911
     0.833333313         0.583333313         0.999429941
     0.000000000         0.333333343         0.499429911
     0.000000000         0.333333343         0.999429941
     0.000000000         0.833333373         0.499429911
     0.000000000         0.833333373         0.999429941
     0.333333343         0.333333343         0.499429911
     0.333333343         0.333333343         0.999429941
     0.333333343         0.833333373         0.499429911
     0.333333343         0.833333373         0.999429941
     0.666666687         0.333333343         0.499429911
     0.666666687         0.333333343         0.999429941
     0.666666687         0.833333373         0.499429911
     0.666666687         0.833333373         0.999429941
     0.166666672         0.416666657         0.249429911
     0.166666672         0.416666657         0.749429941
     0.166666672         0.916666627         0.249429911
     0.166666672         0.916666627         0.749429941
     0.500000000         0.416666657         0.249429911
     0.500000000         0.416666657         0.749429941
     0.500000000         0.916666627         0.249429911
     0.500000000         0.916666627         0.749429941
     0.833333313         0.416666657         0.249429911
     0.833333313         0.416666657         0.749429941
     0.833333313         0.916666627         0.249429911
     0.833333313         0.916666627         0.749429941
     0.000000000         0.166666657         0.249429911
     0.000000000         0.166666657         0.749429941
     0.000000000         0.666666627         0.249429911
     0.000000000         0.666666627         0.749429941
     0.333333343         0.166666657         0.249429911
     0.333333343         0.166666657         0.749429941
     0.333333343         0.666666627         0.249429911
     0.333333343         0.666666627         0.749429941
     0.666666687         0.166666657         0.249429911
     0.666666687         0.166666657         0.749429941
     0.666666687         0.666666627         0.249429911
     0.666666687         0.666666627         0.749429941
     0.166666672         0.083333336         0.188070089
     0.166666672         0.083333336         0.688070059
     0.166666672         0.583333313         0.188070089
     0.166666672         0.583333313         0.688070059
     0.500000000         0.083333336         0.188070089
     0.500000000         0.083333336         0.688070059
     0.500000000         0.583333313         0.188070089
     0.500000000         0.583333313         0.688070059
     0.833333313         0.083333336         0.188070089
     0.833333313         0.083333336         0.688070059
     0.833333313         0.583333313         0.188070089
     0.833333313         0.583333313         0.688070059
     0.000000000         0.333333343         0.188070089
     0.000000000         0.333333343         0.688070059
     0.000000000         0.833333373         0.188070089
     0.000000000         0.833333373         0.688070059
     0.333333343         0.333333343         0.188070089
     0.333333343         0.333333343         0.688070059
     0.333333343         0.833333373         0.188070089
     0.333333343         0.833333373         0.688070059
     0.666666687         0.333333343         0.188070089
     0.666666687         0.333333343         0.688070059
     0.666666687         0.833333373         0.188070089
     0.666666687         0.833333373         0.688070059
     0.166666672         0.416666657         0.438070089
     0.166666672         0.416666657         0.938070059
     0.166666672         0.916666627         0.438070089
     0.166666672         0.916666627         0.938070059
     0.500000000         0.416666657         0.438070089
     0.500000000         0.416666657         0.938070059
     0.500000000         0.916666627         0.438070089
     0.500000000         0.916666627         0.938070059
     0.833333313         0.416666657         0.438070089
     0.833333313         0.416666657         0.938070059
     0.833333313         0.916666627         0.438070089
     0.833333313         0.916666627         0.938070059
     0.000000000         0.166666657         0.438070089
     0.000000000         0.166666657         0.938070059
     0.000000000         0.666666627         0.438070089
     0.000000000         0.666666627         0.938070059
     0.333333343         0.166666657         0.438070089
     0.333333343         0.166666657         0.938070059
     0.333333343         0.666666627         0.438070089
     0.333333343         0.666666627         0.938070059
     0.666666687         0.166666657         0.438070089
     0.666666687         0.166666657         0.938070059
     0.666666687         0.666666627         0.438070089
     0.666666687         0.666666627         0.938070059
