GaN_ONH                                 
    1.000000000000000     
    15.8909244537000003    0.0000000000000000    0.0000000000000000
     0.0000000000000000   16.5143318175999987    0.0000000000000000
     0.0000000000000000    0.0000000000000000   15.4982528686999999
   Ga   N    O    H 
   180   179     1     1
Direct
  0.0997035144814120  0.0555267594605411  0.3327458872963831
  0.0998306558643307  0.0555200421633728  0.6664044469062205
  0.0998713756077194  0.0555233108749178  0.9994781716936672
  0.0993090510938259  0.3883698881799873  0.3328297382146701
  0.0994469790779604  0.3884615529787681  0.6666806032558057
  0.0996537676706595  0.3885922117467473  0.9995991755886422
  0.0995518887427238  0.7224652328517394  0.3327134990535541
  0.0997302946272569  0.7223503201233683  0.6665888692595701
  0.0997561646413203  0.7223433162520934  0.9995757033108887
  0.2998651670549179  0.0555802744008744  0.3327813157444339
  0.2999181141440346  0.0555897045195763  0.6664354587659531
  0.2999371516676632  0.0555731103305064  0.9995443314196280
  0.2985538113253696  0.3877092815285437  0.3319751695790671
  0.2990788962494193  0.3882705349724134  0.6676257893011766
  0.2995879884492751  0.3884082805680364  0.9997068693314830
  0.2997414839100188  0.7239507654417778  0.3319709622020000
  0.2999570391421926  0.7232331595172283  0.6676344638836724
  0.2998168864036117  0.7227382390524113  0.9997017695875172
  0.5001348149450777  0.0555802744008744  0.3327813157444339
  0.5000818678559611  0.0555897045195763  0.6664354587659531
  0.5000628303323325  0.0555731103305064  0.9995443314196280
  0.5014462306746310  0.3877092815285437  0.3319751695790671
  0.5009210867505800  0.3882705349724134  0.6676257893011766
  0.5004120535507184  0.3884082805680364  0.9997068693314830
  0.5002585280899794  0.7239507654417778  0.3319709622020000
  0.5000429728578055  0.7232331595172283  0.6676344638836724
  0.5001831255963936  0.7227382390524113  0.9997017695875172
  0.7002964975185861  0.0555267594605411  0.3327458872963831
  0.7001693191356679  0.0555200421633728  0.6664044469062205
  0.7001286213922810  0.0555233108749178  0.9994781716936672
  0.7006909389061704  0.3883698881799873  0.3328297382146701
  0.7005530249220442  0.3884615529787681  0.6666806032558057
  0.7003462223293369  0.3885922117467473  0.9995991755886422
  0.7004480942572755  0.7224652328517394  0.3327134990535541
  0.7002697023727436  0.7223503201233683  0.6665888692595701
  0.7002438183586790  0.7223433162520934  0.9995757033108887
  0.8999999759999966  0.0555143774668068  0.3328222113759196
  0.8999999759999966  0.0554827741368555  0.6663075487453654
  0.8999999759999966  0.0554911377755403  0.9994945276768803
  0.8999999759999966  0.3886024231163887  0.3327924352310774
  0.8999999759999966  0.3886495500267557  0.6664438951243810
  0.8999999759999966  0.3886865862109516  0.9995509791343338
  0.8999999759999966  0.7222739436867016  0.3327590627371748
  0.8999999759999966  0.7222401342639699  0.6664295768154247
  0.8999999759999966  0.7222526374970855  0.9995054398174545
  0.9997765110908148  0.2219793743197158  0.3328063243280468
  0.9998452247264709  0.2220052742531635  0.6663868583017845
  0.9998830065174715  0.2220493783567150  0.9995223872220720
  0.9995119086732487  0.5553667654541741  0.3324881022405535
  0.9997080544130412  0.5553576441826422  0.6666176980932832
  0.9998041810320757  0.5554294773655926  0.9995409721589539
  0.9998263906169385  0.8889992524927806  0.3327843144286575
  0.9998887573429371  0.8889330991062536  0.6663661160613330
  0.9999124695998489  0.8889284123807428  0.9994973428527700
  0.1994898034948065  0.2216198547856791  0.3325329396760353
  0.1996565420733916  0.2218695477941779  0.6665709673237785
  0.1997744958584775  0.2219570168707250  0.9995592024114544
  0.1983693016951307  0.5548486215810797  0.3319844406039962
  0.1990810933593821  0.5550197667751746  0.6676288474194152
  0.1994375684418088  0.5553719258748657  0.9996972915928666
  0.1996521832646252  0.8895014151866931  0.3325294367410052
  0.1998380021382076  0.8892546278913045  0.6665667481527890
  0.1998645346969639  0.8891254604994145  0.9995490685541668
  0.4000000059999991  0.2216752968350875  0.3327236691114379
  0.4000000059999991  0.2218870506027244  0.6666049361153625
  0.4000000059999991  0.2219207628293418  0.9995972444860541
  0.4000000059999991  0.5554759072886526  0.3148175921494456
  0.4000000059999991  0.5555225088559226  0.6710891625733026
  0.4000000059999991  0.5555023821559928  0.0005898775362922
  0.4000000059999991  0.8896480637682487  0.3328228926233905
  0.4000000059999991  0.8894889653878408  0.6666857617673543
  0.4000000059999991  0.8892561528668281  0.9996024392228620
  0.6005102085051917  0.2216198547856791  0.3325329396760353
  0.6003434849266043  0.2218695477941779  0.6665709673237785
  0.6002255161415206  0.2219570168707250  0.9995592024114544
  0.6016307403048629  0.5548486215810797  0.3319844406039962
  0.6009189336406209  0.5550197667751746  0.6676288474194152
  0.6005624875581859  0.5553719258748657  0.9996972915928666
  0.6003478587353754  0.8895014151866931  0.3325294367410052
  0.6001619948617929  0.8892546278913045  0.6665667481527890
  0.6001354923030391  0.8891254604994145  0.9995490685541668
  0.8002235009091834  0.2219793743197158  0.3328063243280468
  0.8001547872735273  0.2220052742531635  0.6663868583017845
  0.8001170054825266  0.2220493783567150  0.9995223872220720
  0.8004881033267495  0.5553667654541741  0.3324881022405535
  0.8002919575869569  0.5553576441826422  0.6666176980932832
  0.8001958309679225  0.5554294773655926  0.9995409721589539
  0.8001736213830597  0.8889992524927806  0.3327843144286575
  0.8001112546570610  0.8889330991062536  0.6663661160613330
  0.8000875414001456  0.8889284123807428  0.9994973428527700
  0.0997317378141105  0.2775131693290831  0.1660913937768811
  0.0994493218013019  0.2774200469537078  0.4997191295467900
  0.0998552481033599  0.2776127671249924  0.8330737721095502
  0.0992231607381271  0.6113923912485717  0.1659944828986610
  0.0971577859234571  0.6113626816288189  0.4998293204882316
  0.0996277928544202  0.6112945739635762  0.8332792956163573
  0.0997068222874233  0.9446464283384870  0.1660301580907628
  0.0993933092321839  0.9449513437162054  0.4996644312674761
  0.0998464989048742  0.9445392942675142  0.8329804075561640
  0.2997723963641334  0.2769146040818526  0.1660123577970793
  0.2986440686113809  0.2750646533447139  0.4998257084571875
  0.2999163286447697  0.2773545473083843  0.8332844390999057
  0.2983896082181019  0.6120270006121942  0.1644548035445439
  0.2861368208322688  0.6189320924720363  0.5021137117018668
  0.2994069033073217  0.6114569910553556  0.8345442124308136
  0.2998764535584115  0.9446864554274370  0.1660933570380152
  0.2999401640051929  0.9449464160505414  0.4997227232988237
  0.2999196191785316  0.9445907577129375  0.8330858434952546
  0.5002276446358707  0.2769146040818526  0.1660123577970793
  0.5013559433886172  0.2750646533447139  0.4998257084571875
  0.5000837133552309  0.2773545473083843  0.8332844390999057
  0.5016103737819009  0.6120270006121942  0.1644548035445439
  0.5138631911677294  0.6189320924720363  0.5021137117018668
  0.5005931086926765  0.6114569910553556  0.8345442124308136
  0.5001235584415866  0.9446864554274370  0.1660933570380152
  0.5000598779948007  0.9449464160505414  0.4997227232988237
  0.5000804228214690  0.9445907577129375  0.8330858434952546
  0.7002682441858852  0.2775131693290831  0.1660913937768811
  0.7005506381986990  0.2774200469537078  0.4997191295467900
  0.7001447488966406  0.2776127671249924  0.8330737721095502
  0.7007768132618679  0.6113923912485717  0.1659944828986610
  0.7028421820765445  0.6113626816288189  0.4998293204882316
  0.7003721891455754  0.6112945739635762  0.8332792956163573
  0.7002931527125824  0.9446464283384870  0.1660301580907628
  0.7006066807678195  0.9449513437162054  0.4996644312674761
  0.7001534610951268  0.9445392942675142  0.8329804075561640
  0.8999999759999966  0.2776610319875061  0.1661338861679980
  0.8999999759999966  0.2775707717771141  0.4996666082948380
  0.8999999759999966  0.2776933444885188  0.8329922258933493
  0.8999999759999966  0.6112429772711891  0.1659665251953797
  0.8999999759999966  0.6111874711236780  0.4997135865840505
  0.8999999759999966  0.6112094319308525  0.8330488431169485
  0.8999999759999966  0.9445684430844281  0.1661134579621191
  0.8999999759999966  0.9445871418348943  0.4995975094233813
  0.8999999759999966  0.9445188882822038  0.8329240421997781
  0.9998779154066497  0.1110857820971987  0.1661020238423703
  0.9997722513266964  0.1111271346546658  0.4996236569219690
  0.9999288018936241  0.1110834537651471  0.8329397563263470
  0.9997719096361948  0.4443235117446704  0.1660832718677554
  0.9996074565942052  0.4440605415770023  0.4997343241690828
  0.9998625368243879  0.4443758946904666  0.8331002125686666
  0.9997510932880047  0.7780189317713067  0.1661007973513620
  0.9995638557670432  0.7781047185211847  0.4996511350004766
  0.9998579307625235  0.7779333037420670  0.8329842869351509
  0.1997981240467226  0.1108681509053113  0.1660463095887508
  0.1995294105684877  0.1105070487676088  0.4996694734206812
  0.1999120150339664  0.1109984934038835  0.8330124078626682
  0.1993895704013369  0.4440884171553421  0.1659220378036537
  0.1988346119449318  0.4437616423439508  0.5006867114169040
  0.1996747052321552  0.4442588234963125  0.8335919494082873
  0.1993295347066137  0.7784002286073317  0.1660047310407364
  0.1982219217645920  0.7802441073973085  0.4998115129217595
  0.1996476093955337  0.7780723405779568  0.8332748538723820
  0.4000000059999991  0.1108498548970616  0.1661320616717603
  0.4000000059999991  0.1107381968393639  0.4996800225083931
  0.4000000059999991  0.1109679380594457  0.8330283004207217
  0.4000000059999991  0.4426169511345819  0.1644531461648455
  0.4000000059999991  0.4287897440750825  0.5021048889438759
  0.4000000059999991  0.4437762342307110  0.8345493960026005
  0.4000000059999991  0.7784752386633045  0.1659182318172725
  0.4000000059999991  0.7791496333268668  0.5006909236061716
  0.4000000059999991  0.7781557098350689  0.8335963324842837
  0.6002019179532780  0.1108681509053113  0.1660463095887508
  0.6004706314315129  0.1105070487676088  0.4996694734206812
  0.6000879959660352  0.1109984934038835  0.8330124078626682
  0.6006104415986684  0.4440884171553421  0.1659220378036537
  0.6011654000550735  0.4437616423439508  0.5006867114169040
  0.6003252917678452  0.4442588234963125  0.8335919494082873
  0.6006705072933869  0.7784002286073317  0.1660047310407364
  0.6017780752354085  0.7802441073973085  0.4998115129217595
  0.6003524476044646  0.7780723405779568  0.8332748538723820
  0.8001220965933555  0.1110857820971987  0.1661020238423703
  0.8002277606733017  0.1111271346546658  0.4996236569219690
  0.8000712101063741  0.1110834537651471  0.8329397563263470
  0.8002281013637997  0.4443235117446704  0.1660832718677554
  0.8003925554057929  0.4440605415770023  0.4997343241690828
  0.8001374751756103  0.4443758946904666  0.8331002125686666
  0.8002489187119934  0.7780189317713067  0.1661007973513620
  0.8004361562329620  0.7781047185211847  0.4996511350004766
  0.8001420812374747  0.7779333037420670  0.8329842869351509
  0.0998645768195487  0.0555899406176863  0.1250747108108854
  0.0996573899401056  0.0556189913678864  0.4583787350117134
  0.0999879747202144  0.0555659262025472  0.7919029162882651
  0.0998057589199206  0.3887324623813626  0.1252521966392663
  0.0999021400009852  0.3887434262449219  0.4585547677186170
  0.1000388747983862  0.3888920588619200  0.7920749143165793
  0.0998563276535407  0.7223072823832482  0.1252390283408431
  0.1000200665742028  0.7221968535014085  0.4585691192862029
  0.1000296474099898  0.7222049616502986  0.7919791457943433
  0.2999648454480379  0.0556251143104021  0.1251668818370959
  0.2999441202333770  0.0557452169096351  0.4584587512941667
  0.2999966693106657  0.0555824523755959  0.7919127880285970
  0.2995945437943490  0.3884744560473621  0.1256096691877033
  0.2982976344012727  0.3877267821410157  0.4578373900423074
  0.3001203147835412  0.3889939367561226  0.7925724491086186
  0.2998383909764684  0.7227705566265072  0.1256073772712512
  0.2998462486417068  0.7242540594066256  0.4578394119469920
  0.3000382654645435  0.7220802167547475  0.7925811286439526
  0.5000351665519602  0.0556251143104021  0.1251668818370959
  0.5000558917666282  0.0557452169096351  0.4584587512941667
  0.5000033426893395  0.0555824523755959  0.7919127880285970
  0.5004054682056491  0.3884744560473621  0.1256096691877033
  0.5017023475987230  0.3877267821410157  0.4578373900423074
  0.4998796972164570  0.3889939367561226  0.7925724491086186
  0.5001616510235323  0.7227705566265072  0.1256073772712512
  0.5001537633582913  0.7242540594066256  0.4578394119469920
  0.4999617465354547  0.7220802167547475  0.7925811286439526
  0.7001354421804464  0.0555899406176863  0.1250747108108854
  0.7003426070598948  0.0556189913678864  0.4583787350117134
  0.7000120372797838  0.0555659262025472  0.7919029162882651
  0.7001942380800799  0.3887324623813626  0.1252521966392663
  0.7000978419990105  0.3887434262449219  0.4585547677186170
  0.6999611002016124  0.3888920588619200  0.7920749143165793
  0.7001436543464621  0.7223072823832482  0.1252390283408431
  0.6999799384257983  0.7221968535014085  0.4585691192862029
  0.6999703115900076  0.7222049616502986  0.7919791457943433
  0.8999999759999966  0.0555455455040104  0.1251047816393722
  0.8999999759999966  0.0555264197880163  0.4584570159686052
  0.8999999759999966  0.0555529898102307  0.7918426390150799
  0.8999999759999966  0.3887723212839163  0.1251632116881396
  0.8999999759999966  0.3886326004401326  0.4584444618156596
  0.8999999759999966  0.3888698239779700  0.7919267968325059
  0.8999999759999966  0.7222316328559799  0.1251330880861801
  0.8999999759999966  0.7220632404935188  0.4584564761510563
  0.8999999759999966  0.7221910516414667  0.7918969245729173
  0.9999028459137946  0.2221654675961560  0.1251326780359321
  0.9998402568848803  0.2221681312640413  0.4584408713672303
  0.9999950667907243  0.2222211177196272  0.7918906685173113
  0.9998620676882695  0.5554340922034910  0.1251852675715881
  0.9993545825641590  0.5550687672879491  0.4581985027327633
  0.0000344791500950  0.5555223973627150  0.7920051852640171
  0.9999296804896147  0.8889187084797285  0.1251174474219638
  0.9999345978763827  0.8888688940508302  0.4584494077087697
  0.9999986963609615  0.8888805940516136  0.7918645380890723
  0.1997904477153298  0.2220507795814797  0.1252075151204792
  0.1991725646330238  0.2216000030754515  0.4582354120368350
  0.2000028199155750  0.2222425531544872  0.7919771383993108
  0.1994728503690055  0.5554018260384410  0.1255981125960162
  0.1982889746852123  0.5546802773692789  0.4578433915464757
  0.2001649096346583  0.5555953266671665  0.7925744010999978
  0.1999053324867006  0.8891515087798894  0.1252011411067144
  0.1997892106549841  0.8899053636119731  0.4582429051773289
  0.2000118126077126  0.8888911315906540  0.7919739414119533
  0.4000000059999991  0.2220756414875140  0.1252611799364587
  0.4000000059999991  0.2223120075748071  0.4585683503232758
  0.4000000059999991  0.2222666645230618  0.7919950449277664
  0.4000000059999991  0.5555422573833582  0.1277688439440254
  0.4000000059999991  0.5555493697597953  0.7939935593095129
  0.4000000059999991  0.8891545944808144  0.1252610251880739
  0.4000000059999991  0.8891176723852396  0.4585583002400710
  0.4000000059999991  0.8888728894288676  0.7920830334783702
  0.6002095642846683  0.2220507795814797  0.1252075151204792
  0.6008274623669720  0.2216000030754515  0.4582354120368350
  0.5999972070844279  0.2222425531544872  0.7919771383993108
  0.6005271466309949  0.5554018260384410  0.1255981125960162
  0.6017110823147860  0.5546802773692789  0.4578433915464757
  0.5998351023653399  0.5555953266671665  0.7925744010999978
  0.6000947095133000  0.8891515087798894  0.1252011411067144
  0.6002108463450142  0.8899053636119731  0.4582429051773289
  0.5999882293922880  0.8888911315906540  0.7919739414119533
  0.8000971660862035  0.2221654675961560  0.1251326780359321
  0.8001597551151178  0.2221681312640413  0.4584408713672303
  0.8000049722092797  0.2222211177196272  0.7918906685173113
  0.8001379443117287  0.5554340922034910  0.1251852675715881
  0.8006454574358415  0.5550687672879491  0.4581985027327633
  0.7999655148499016  0.5555223973627150  0.7920051852640171
  0.8000703905103848  0.8889187084797285  0.1251174474219638
  0.8000654401236176  0.8888688940508302  0.4584494077087697
  0.8000012946390385  0.8888805940516136  0.7918645380890723
  0.0998941395458459  0.2776242090955705  0.2918072674602854
  0.1000020699426258  0.2776982081781370  0.6252393310865898
  0.0999626948779309  0.2776761888249268  0.9585972884081144
  0.0996917614221857  0.6112707725456161  0.2918035540976902
  0.1001505027706244  0.6110272154574474  0.6252192704635320
  0.0999258095525803  0.6111236518522816  0.9587562657880540
  0.0997480855356514  0.9444858890683463  0.2916832106882765
  0.0999453787617668  0.9443718143788615  0.6251965177578001
  0.0999402671496625  0.9444170650186337  0.9585169658645896
  0.2999309836383901  0.2772659879784598  0.2918318102780191
  0.3000083470081094  0.2778391582406599  0.6252159399201176
  0.2999757111353247  0.2776200392949733  0.9587698119193888
  0.2990008226874181  0.6116609263265858  0.2930567692189356
  0.3003795712521580  0.6108827355301116  0.6250135174947218
  0.3000411437886541  0.6110557735240363  0.9599314129083893
  0.2999390725617772  0.9444445597166293  0.2918116981847945
  0.2999744095967358  0.9443899229588482  0.6252378933857301
  0.2999643510102814  0.9444371823463200  0.9586072122123070
  0.5000690283616080  0.2772659879784598  0.2918318102780191
  0.4999916649918958  0.2778391582406599  0.6252159399201176
  0.5000243008646805  0.2776200392949733  0.9587698119193888
  0.5009992193125825  0.6116609263265858  0.2930567692189356
  0.4996204407478473  0.6108827355301116  0.6250135174947218
  0.4999588682113441  0.6110557735240363  0.9599314129083893
  0.5000609094382185  0.9444445597166293  0.2918116981847945
  0.5000256024032623  0.9443899229588482  0.6252378933857301
  0.5000356609897167  0.9444371823463200  0.9586072122123070
  0.7001058504541504  0.2776242090955705  0.2918072674602854
  0.6999978900573751  0.2776982081781370  0.6252393310865898
  0.7000372721220671  0.2776761888249268  0.9585972884081144
  0.7003082055778123  0.6112707725456161  0.2918035540976902
  0.6998494572293694  0.6110272154574474  0.6252192704635320
  0.7000741644474218  0.6111236518522816  0.9587562657880540
  0.7002518964643514  0.9444858890683463  0.2916832106882765
  0.7000545962382319  0.9443718143788615  0.6251965177578001
  0.7000597148503402  0.9444170650186337  0.9585169658645896
  0.8999999759999966  0.2777271142108546  0.2917731755637618
  0.8999999759999966  0.2777369660014770  0.6252329909597449
  0.8999999759999966  0.2777254690525197  0.9585342301983388
  0.8999999759999966  0.6112270782934743  0.2916415956682599
  0.8999999759999966  0.6110932807678608  0.6252187595101262
  0.8999999759999966  0.6111109013507203  0.9585703473065976
  0.8999999759999966  0.9444662432944142  0.2917726586703253
  0.8999999759999966  0.9443768672952189  0.6251598713566011
  0.8999999759999966  0.9444134912899571  0.9584788321978834
  0.9999101156796328  0.1110802248392204  0.2917440538709144
  0.9999809413510832  0.1110532252942278  0.6251930126609082
  0.9999705476842280  0.1110591374357170  0.9584887356210245
  0.9999369192923595  0.4443781449335233  0.2917996682585198
  0.0000080285160351  0.4444231702625743  0.6252518256680517
  0.9999614804871300  0.4443983419614455  0.9586133524559131
  0.9998944371714202  0.7778380531094200  0.2918135844437089
  0.0000190283443686  0.7777046424463592  0.6251828781531188
  0.9999596007798246  0.7777737391493389  0.9585171748687173
  0.1998831756709620  0.1108230291276016  0.2917099514267392
  0.1999770556978007  0.1110150586343792  0.6252069786998717
  0.1999696741546302  0.1110131938413588  0.9585445777370580
  0.1997346310332944  0.4442388301535374  0.2918563315425047
  0.2000269556946037  0.4444125162025756  0.6257073987143258
  0.1999269118979896  0.4443581211329075  0.9590193247893666
  0.1996415178784332  0.7779993554926605  0.2918208798856341
  0.2001049016949281  0.7776616603336564  0.6252012041766051
  0.1999166586817083  0.7778093024966779  0.9587570195627464
  0.4000000059999991  0.1108987002984847  0.2918412008868430
  0.4000000059999991  0.1110794750084665  0.6252190106463118
  0.4000000059999991  0.1110083862134488  0.9585615644960512
  0.4000000059999991  0.4432162073759116  0.2930627679616933
  0.4000000059999991  0.4448158269551783  0.6249830520759900
  0.4000000059999991  0.4444310510118825  0.9599374185922969
  0.4000000059999991  0.7780541332043427  0.2918441670490850
  0.4000000059999991  0.7777208505086648  0.6257087680729896
  0.4000000059999991  0.7778211993232702  0.9590236285926750
  0.6001168363290432  0.1108230291276016  0.2917099514267392
  0.6000229863022000  0.1110150586343792  0.6252069786998717
  0.6000303678453704  0.1110131938413588  0.9585445777370580
  0.6002654109667063  0.4442388301535374  0.2918563315425047
  0.5999731013054017  0.4444125162025756  0.6257073987143258
  0.6000731301020110  0.4443581211329075  0.9590193247893666
  0.6003584941215649  0.7779993554926605  0.2918208798856341
  0.5998950953050723  0.7776616603336564  0.6252012041766051
  0.6000833683182876  0.7778093024966779  0.9587570195627464
  0.8000898963203724  0.1110802248392204  0.2917440538709144
  0.8000190996489138  0.1110532252942278  0.6251930126609082
  0.8000294543157693  0.1110591374357170  0.9584887356210245
  0.8000630927076386  0.4443781449335233  0.2917996682585198
  0.7999920044839612  0.4444231702625743  0.6252518256680517
  0.8000385305128717  0.4443983419614455  0.9586133524559131
  0.8001055668285773  0.7778380531094200  0.2918135844437089
  0.7999809556556343  0.7777046424463592  0.6251828781531188
  0.8000404202201779  0.7777737391493389  0.9585171748687173
  0.4000000059999991  0.5556071349044345  0.4710784776896446
  0.4000000059999991  0.5552516030135237  0.5355556646165454
 
  0.00000000E+00  0.00000000E+00  0.00000000E+00
  0.00000000E+00  0.00000000E+00  0.00000000E+00
  0.00000000E+00  0.00000000E+00  0.00000000E+00
  0.00000000E+00  0.00000000E+00  0.00000000E+00
  0.00000000E+00  0.00000000E+00  0.00000000E+00
  0.00000000E+00  0.00000000E+00  0.00000000E+00
  0.00000000E+00  0.00000000E+00  0.00000000E+00
  0.00000000E+00  0.00000000E+00  0.00000000E+00
  0.00000000E+00  0.00000000E+00  0.00000000E+00
  0.00000000E+00  0.00000000E+00  0.00000000E+00
  0.00000000E+00  0.00000000E+00  0.00000000E+00
  0.00000000E+00  0.00000000E+00  0.00000000E+00
  0.00000000E+00  0.00000000E+00  0.00000000E+00
  0.00000000E+00  0.00000000E+00  0.00000000E+00
  0.00000000E+00  0.00000000E+00  0.00000000E+00
  0.00000000E+00  0.00000000E+00  0.00000000E+00
  0.00000000E+00  0.00000000E+00  0.00000000E+00
  0.00000000E+00  0.00000000E+00  0.00000000E+00
  0.00000000E+00  0.00000000E+00  0.00000000E+00
  0.00000000E+00  0.00000000E+00  0.00000000E+00
  0.00000000E+00  0.00000000E+00  0.00000000E+00
  0.00000000E+00  0.00000000E+00  0.00000000E+00
  0.00000000E+00  0.00000000E+00  0.00000000E+00
  0.00000000E+00  0.00000000E+00  0.00000000E+00
  0.00000000E+00  0.00000000E+00  0.00000000E+00
  0.00000000E+00  0.00000000E+00  0.00000000E+00
  0.00000000E+00  0.00000000E+00  0.00000000E+00
  0.00000000E+00  0.00000000E+00  0.00000000E+00
  0.00000000E+00  0.00000000E+00  0.00000000E+00
  0.00000000E+00  0.00000000E+00  0.00000000E+00
  0.00000000E+00  0.00000000E+00  0.00000000E+00
  0.00000000E+00  0.00000000E+00  0.00000000E+00
  0.00000000E+00  0.00000000E+00  0.00000000E+00
  0.00000000E+00  0.00000000E+00  0.00000000E+00
  0.00000000E+00  0.00000000E+00  0.00000000E+00
  0.00000000E+00  0.00000000E+00  0.00000000E+00
  0.00000000E+00  0.00000000E+00  0.00000000E+00
  0.00000000E+00  0.00000000E+00  0.00000000E+00
  0.00000000E+00  0.00000000E+00  0.00000000E+00
  0.00000000E+00  0.00000000E+00  0.00000000E+00
  0.00000000E+00  0.00000000E+00  0.00000000E+00
  0.00000000E+00  0.00000000E+00  0.00000000E+00
  0.00000000E+00  0.00000000E+00  0.00000000E+00
  0.00000000E+00  0.00000000E+00  0.00000000E+00
  0.00000000E+00  0.00000000E+00  0.00000000E+00
  0.00000000E+00  0.00000000E+00  0.00000000E+00
  0.00000000E+00  0.00000000E+00  0.00000000E+00
  0.00000000E+00  0.00000000E+00  0.00000000E+00
  0.00000000E+00  0.00000000E+00  0.00000000E+00
  0.00000000E+00  0.00000000E+00  0.00000000E+00
  0.00000000E+00  0.00000000E+00  0.00000000E+00
  0.00000000E+00  0.00000000E+00  0.00000000E+00
  0.00000000E+00  0.00000000E+00  0.00000000E+00
  0.00000000E+00  0.00000000E+00  0.00000000E+00
  0.00000000E+00  0.00000000E+00  0.00000000E+00
  0.00000000E+00  0.00000000E+00  0.00000000E+00
  0.00000000E+00  0.00000000E+00  0.00000000E+00
  0.00000000E+00  0.00000000E+00  0.00000000E+00
  0.00000000E+00  0.00000000E+00  0.00000000E+00
  0.00000000E+00  0.00000000E+00  0.00000000E+00
  0.00000000E+00  0.00000000E+00  0.00000000E+00
  0.00000000E+00  0.00000000E+00  0.00000000E+00
  0.00000000E+00  0.00000000E+00  0.00000000E+00
  0.00000000E+00  0.00000000E+00  0.00000000E+00
  0.00000000E+00  0.00000000E+00  0.00000000E+00
  0.00000000E+00  0.00000000E+00  0.00000000E+00
  0.00000000E+00  0.00000000E+00  0.00000000E+00
  0.00000000E+00  0.00000000E+00  0.00000000E+00
  0.00000000E+00  0.00000000E+00  0.00000000E+00
  0.00000000E+00  0.00000000E+00  0.00000000E+00
  0.00000000E+00  0.00000000E+00  0.00000000E+00
  0.00000000E+00  0.00000000E+00  0.00000000E+00
  0.00000000E+00  0.00000000E+00  0.00000000E+00
  0.00000000E+00  0.00000000E+00  0.00000000E+00
  0.00000000E+00  0.00000000E+00  0.00000000E+00
  0.00000000E+00  0.00000000E+00  0.00000000E+00
  0.00000000E+00  0.00000000E+00  0.00000000E+00
  0.00000000E+00  0.00000000E+00  0.00000000E+00
  0.00000000E+00  0.00000000E+00  0.00000000E+00
  0.00000000E+00  0.00000000E+00  0.00000000E+00
  0.00000000E+00  0.00000000E+00  0.00000000E+00
  0.00000000E+00  0.00000000E+00  0.00000000E+00
  0.00000000E+00  0.00000000E+00  0.00000000E+00
  0.00000000E+00  0.00000000E+00  0.00000000E+00
  0.00000000E+00  0.00000000E+00  0.00000000E+00
  0.00000000E+00  0.00000000E+00  0.00000000E+00
  0.00000000E+00  0.00000000E+00  0.00000000E+00
  0.00000000E+00  0.00000000E+00  0.00000000E+00
  0.00000000E+00  0.00000000E+00  0.00000000E+00
  0.00000000E+00  0.00000000E+00  0.00000000E+00
  0.00000000E+00  0.00000000E+00  0.00000000E+00
  0.00000000E+00  0.00000000E+00  0.00000000E+00
  0.00000000E+00  0.00000000E+00  0.00000000E+00
  0.00000000E+00  0.00000000E+00  0.00000000E+00
  0.00000000E+00  0.00000000E+00  0.00000000E+00
  0.00000000E+00  0.00000000E+00  0.00000000E+00
  0.00000000E+00  0.00000000E+00  0.00000000E+00
  0.00000000E+00  0.00000000E+00  0.00000000E+00
  0.00000000E+00  0.00000000E+00  0.00000000E+00
  0.00000000E+00  0.00000000E+00  0.00000000E+00
  0.00000000E+00  0.00000000E+00  0.00000000E+00
  0.00000000E+00  0.00000000E+00  0.00000000E+00
  0.00000000E+00  0.00000000E+00  0.00000000E+00
  0.00000000E+00  0.00000000E+00  0.00000000E+00
  0.00000000E+00  0.00000000E+00  0.00000000E+00
  0.00000000E+00  0.00000000E+00  0.00000000E+00
  0.00000000E+00  0.00000000E+00  0.00000000E+00
  0.00000000E+00  0.00000000E+00  0.00000000E+00
  0.00000000E+00  0.00000000E+00  0.00000000E+00
  0.00000000E+00  0.00000000E+00  0.00000000E+00
  0.00000000E+00  0.00000000E+00  0.00000000E+00
  0.00000000E+00  0.00000000E+00  0.00000000E+00
  0.00000000E+00  0.00000000E+00  0.00000000E+00
  0.00000000E+00  0.00000000E+00  0.00000000E+00
  0.00000000E+00  0.00000000E+00  0.00000000E+00
  0.00000000E+00  0.00000000E+00  0.00000000E+00
  0.00000000E+00  0.00000000E+00  0.00000000E+00
  0.00000000E+00  0.00000000E+00  0.00000000E+00
  0.00000000E+00  0.00000000E+00  0.00000000E+00
  0.00000000E+00  0.00000000E+00  0.00000000E+00
  0.00000000E+00  0.00000000E+00  0.00000000E+00
  0.00000000E+00  0.00000000E+00  0.00000000E+00
  0.00000000E+00  0.00000000E+00  0.00000000E+00
  0.00000000E+00  0.00000000E+00  0.00000000E+00
  0.00000000E+00  0.00000000E+00  0.00000000E+00
  0.00000000E+00  0.00000000E+00  0.00000000E+00
  0.00000000E+00  0.00000000E+00  0.00000000E+00
  0.00000000E+00  0.00000000E+00  0.00000000E+00
  0.00000000E+00  0.00000000E+00  0.00000000E+00
  0.00000000E+00  0.00000000E+00  0.00000000E+00
  0.00000000E+00  0.00000000E+00  0.00000000E+00
  0.00000000E+00  0.00000000E+00  0.00000000E+00
  0.00000000E+00  0.00000000E+00  0.00000000E+00
  0.00000000E+00  0.00000000E+00  0.00000000E+00
  0.00000000E+00  0.00000000E+00  0.00000000E+00
  0.00000000E+00  0.00000000E+00  0.00000000E+00
  0.00000000E+00  0.00000000E+00  0.00000000E+00
  0.00000000E+00  0.00000000E+00  0.00000000E+00
  0.00000000E+00  0.00000000E+00  0.00000000E+00
  0.00000000E+00  0.00000000E+00  0.00000000E+00
  0.00000000E+00  0.00000000E+00  0.00000000E+00
  0.00000000E+00  0.00000000E+00  0.00000000E+00
  0.00000000E+00  0.00000000E+00  0.00000000E+00
  0.00000000E+00  0.00000000E+00  0.00000000E+00
  0.00000000E+00  0.00000000E+00  0.00000000E+00
  0.00000000E+00  0.00000000E+00  0.00000000E+00
  0.00000000E+00  0.00000000E+00  0.00000000E+00
  0.00000000E+00  0.00000000E+00  0.00000000E+00
  0.00000000E+00  0.00000000E+00  0.00000000E+00
  0.00000000E+00  0.00000000E+00  0.00000000E+00
  0.00000000E+00  0.00000000E+00  0.00000000E+00
  0.00000000E+00  0.00000000E+00  0.00000000E+00
  0.00000000E+00  0.00000000E+00  0.00000000E+00
  0.00000000E+00  0.00000000E+00  0.00000000E+00
  0.00000000E+00  0.00000000E+00  0.00000000E+00
  0.00000000E+00  0.00000000E+00  0.00000000E+00