SiVH3 a=5.46836113565                   
   1.00000000000000     
    21.8734445426000015    0.0000000000000000    0.0000000000000000
     0.0000000000000000   21.8734445426000015    0.0000000000000000
     0.0000000000000000    0.0000000000000000   21.8734445426000015
   Si   H 
   511     3
Direct
  0.0624919497828990  0.0624737442833059  0.0625005870056479
  0.1874809062327660  0.1874641188069691  0.0625884627526867
  0.1874830548513341  0.0625561394333610  0.1874918835774101
  0.0625785424682328  0.1874643163923125  0.1874900545452872
  0.9999412303362681  0.9999244841156554  0.9999496394991376
  0.1249629400526397  0.1249479514247000  0.9999789210238813
  0.1249648208170923  0.9999518583298557  0.1249732494693965
  0.9999698244372509  0.1249480992740930  0.1249714659982207
  0.0625071568920222  0.0624870220976664  0.3124861772463867
  0.1875639622207926  0.1875426036504818  0.3125367210272689
  0.1875297185600375  0.0625843410685871  0.4375069579059052
  0.0626050663473377  0.1875070267871670  0.4375038078942796
  0.9999796657565743  0.9999600532533713  0.2499587547817621
  0.1250412223998036  0.1250212861265825  0.2499716735668809
  0.1249686343086840  0.0000728848860475  0.3749851608205858
  0.0000950613020594  0.1249485178931281  0.3749854736489308
  0.0623481315393207  0.0623267680364027  0.5625585388130595
  0.1873418082425776  0.1873199424364755  0.5626182190846953
  0.1873368853484836  0.0623632845831610  0.6875744492867539
  0.0623830179281256  0.1873164176262766  0.6875743269200335
  0.9998535468860540  0.9998302690967056  0.4999568143607797
  0.1248753351359961  0.1248537820727264  0.4999713318465040
  0.1248276026336063  0.9999415059508880  0.6250304149182101
  0.9999637629891150  0.1248047309876900  0.6250342269701351
  0.0624318367085472  0.0624126744780157  0.8125195177556463
  0.1873779492185940  0.1873609156249172  0.8126120653416442
  0.1874193395967684  0.0624501233466706  0.9375280011524535
  0.0624708231495803  0.1874043564953203  0.9375292903477972
  0.9999014590601035  0.9998837784003818  0.7499498876290723
  0.1248766459542901  0.1248591091438669  0.7500315722315949
  0.1249038328592633  0.9999320968970281  0.8750112442935445
  0.9999504148743680  0.1248848115453193  0.8750129605530560
  0.0625074937193197  0.3124594851929871  0.0625179600901072
  0.1875295306245471  0.4374788681586123  0.0626186370919149
  0.1875643726765819  0.3125081096581074  0.1875747460325562
  0.0626073353220066  0.4374790553848985  0.1875397154849168
  0.9999798128708189  0.2499327287321718  0.9999895704855984
  0.1249683311133882  0.3749610822825818  0.0001036039652915
  0.1250423470111210  0.2499447022142087  0.1250519955307221
  0.0000924086685666  0.3749611978459936  0.1249784879050408
  0.0626012537990203  0.3124542192779592  0.3124840065756525
  0.1876141481213568  0.4375695071719185  0.3126223529948756
  0.1876142606784226  0.3125898545123736  0.4376043851760180
  0.0625335196067416  0.4374496511567061  0.4374812015052931
  0.0000604654882798  0.2499187892045173  0.2499477250028264
  0.1251034496057628  0.3750165019138398  0.2500767107183250
  0.1251015505751243  0.2500460097264246  0.3750472477300055
  0.0000475300350030  0.3749222306002490  0.3749514734769013
  0.0624702003838849  0.3123607873375551  0.5625184345315801
  0.1872655483544745  0.4374114712422775  0.5626199350587305
  0.1872047465435129  0.3122306485102512  0.6876557207321496
  0.0624188396340577  0.4373929684526705  0.6875660127827928
  0.0000274389278500  0.2498694272642990  0.4999802990215383
  0.1248994776823699  0.3749086760500323  0.5000053354241508
  0.1247836455114522  0.2498358193867585  0.6250619275909839
  0.0000085571492252  0.3748790604342828  0.6250416620015654
  0.0623625509948113  0.3123715922645949  0.8125487815862298
  0.1868204833623283  0.4373107399471572  0.8131408573615556
  0.1873972298258273  0.3123601237648611  0.9376633082382013
  0.0623221785307119  0.4373855089681588  0.9377181099236594
  0.9999700746790026  0.2498699546213001  0.7500510800369090
  0.1247700462985860  0.3748490370109558  0.7501084316377850
  0.1249215430454415  0.2499177999547456  0.8750728641817452
 -0.0000236086923189  0.3748971007238272  0.8751072340737351
  0.0623470942013517  0.5625294632359467  0.0623579800471657
  0.1873397388648705  0.6875464308108846  0.0623967526527092
  0.1873427451605126  0.5625880497398396  0.1873531018239418
  0.0623868030620497  0.6875460774019948  0.1873495647756988
  0.9998521333191492  0.4999325103681721 -0.0001352586631593
  0.1248254452533164  0.6250072390433210  0.9999735083986402
  0.1248753508473360  0.4999450524080689  0.1248859975600590
  0.9999624875804224  0.6250067567061505  0.1248363699933515
  0.0624716528349174  0.5624862032578707  0.3123914807901623
  0.1872082342103642  0.6876212309967467  0.3122620616868388
  0.1872660910004150  0.5625851842265251  0.4374473884076435
  0.0624220460935229  0.6875327584868197  0.4374220394669017
  0.0000269404474299  0.4999525604495698  0.2499018280515921
  0.1247869202238460  0.6250315022435482  0.2498684037208125
  0.1248978876655794  0.4999738169259995  0.3749425376980098
  0.0000079062850250  0.6250097344357691  0.3749089271604695
  0.0624560167112672  0.5624423614225119  0.5624726815995137
  0.1871930334234988  0.6876207262065577  0.5625250308374643
  0.1871911243641762  0.5624943881997490  0.6876564825695489
  0.0623625530956230  0.6875043580559574  0.6875335386930690
  0.9999751876928387  0.4999295951670112  0.4999589328065548
  0.1248477216669946  0.6250071574124371  0.5000198623297580
  0.1248442340937127  0.4999886983990453  0.6250401559217221
 -0.0000552638130416  0.6249568430667730  0.6249863123555466
  0.0623557894006726  0.5624724480916515  0.8125165274018699
  0.1873771896312540  0.6874776031958185  0.8125391423116062
  0.1873497738854189  0.5624516879652786  0.9375684859423805
  0.0623511920043860  0.6874396342767900  0.9374277882436879
  0.9999264002914289  0.4999181274153957  0.7500251508028496
  0.1248068461955618  0.6250097651833620  0.7501183921179736
  0.1245954453191566  0.4999966935423480  0.8753236497129906
  0.9997882356112960  0.6249298802180846  0.8748861765435986
  0.0624309956854943  0.8124925772589937  0.0624396987795805
  0.1874207930000921  0.9375005131076015  0.0624809753884598
  0.1873811926229102  0.8125803663454673  0.1873902590372830
  0.0624720063969433  0.9375004943789657  0.1874288853553555
  0.9999022418309901  0.7499252602148413  0.9999118238095474
  0.1249002997505016  0.8749858427979637  0.9999602227617120
  0.1248773035745963  0.7500036689421891  0.1248869902252149
  0.9999512428074649  0.8749856143368945  0.1249088633031006
  0.0623640125199736  0.8125166683613112  0.3123996024663235
  0.1873994913385581  0.9376306148981658  0.3123871645240539
  0.1868250098999898  0.8131029339163957  0.4373407992589402
  0.0623254364845982  0.9376800849831552  0.4374087643580877
  0.9999691573084862  0.7500208145450171  0.2499002205234195
  0.1249203402656811  0.8750414387169226  0.2499456131282630
  0.1247719935389767  0.7500760401836851  0.3748766174103107
 -0.0000216222539768  0.8750734797832578  0.3749218912517604
  0.0623580358681885  0.8124865988174601  0.5624995063926506
  0.1873501320436921  0.9375345154907170  0.5624781098338655
  0.1873758184807462  0.8125078037102162  0.6875058471815946
  0.0623507420869272  0.9373955227676929  0.6874635639375402
  0.9999249111503188  0.7499944641388756  0.4999437842394143
  0.1245993322568792  0.8752875316955182  0.5000231872249152
  0.1248086074195369  0.7500858887709707  0.6250357251465364
  0.9997890326440766  0.8748544799665452  0.6249544929420855
  0.0623912435261811  0.8124415425862546  0.8124661519574069
  0.1873478240939379  0.9374247793427796  0.8125047983262456
  0.1873485824029473  0.8124759783016250  0.9374532470306616
  0.0624591737636556  0.9374360638954587  0.9374615800828511
  0.9997693653262102  0.7499208815880034  0.7499459612010326
  0.1248515172817817  0.8749209968537415  0.7500204731536406
  0.1248524739654374  0.7499926390666766  0.8749484311856204
  0.9998697354640912  0.8749022551386723  0.8749275974983712
  0.3124779580435216  0.0624871555776282  0.0625171705602549
  0.4374948990032584  0.1875075119330982  0.0626161005951349
  0.4374979138787818  0.0625851502751704  0.1875403897732990
  0.3125270670538063  0.1875428228609191  0.1875746284780448
  0.2499507960076132  0.9999603757688699  0.9999892401813834
  0.3749774994018195  0.1249486679894841  0.0001054658172967
  0.3749770060882779  0.0000732581650419  0.1249787890998146
  0.2499630643899911  0.1250214992012422  0.1250509082999317
  0.3124736442496371  0.0625795067111998  0.3124836329164094
  0.4375916907038040  0.1875907041997102  0.3126229062754796
  0.4374722131251896  0.0625085741419045  0.4374826955469396
  0.3126105851258537  0.1875901910968103  0.4376031751889240
  0.2499386647995889  0.0000408824914834  0.2499478074064352
  0.3750368518070119  0.1250802994693834  0.2500793479679277
  0.3749413885919542  0.0000257850410146  0.3749511407656920
  0.2500685471042793  0.1250799282923282  0.3750465576208576
  0.3123780389771199  0.0624459470346994  0.5625177439646923
  0.4374358622650155  0.1872419081941616  0.5626198538637016
  0.4374103585700894  0.0623966216698051  0.6875670988794661
  0.3122513324643166  0.1871835208504037  0.6876564192777110
  0.2498884784006513  0.0000049981099592  0.4999818845403181
  0.3749315159745560  0.1248745548219475  0.5000051028811706
  0.3748999810678584 -0.0000156131424469  0.6250406534945531
  0.2498574913349597  0.1247631897204084  0.6250616864699002
  0.3123887019805902  0.0623409021035163  0.8125467021202423
  0.4373292283863929  0.1867993725069131  0.8131385109387412
  0.4374001092952517  0.0623022069068433  0.9377171448557389
  0.3123794577941654  0.1873771952012771  0.9376660544311902
  0.2498887126626451  0.9999471837240411  0.7500521208863457
  0.3748676679654497  0.1247514902202105  0.7501073282094581
  0.3749147569893602  0.9999554444046960  0.8751058756173291
  0.2499349790882489  0.1249018299468032  0.8750718704256516
  0.3124744696228035  0.3124541524995122  0.0626126499045595
  0.4374709264826037  0.4374498931962443  0.0625455110706683
  0.4375939288342677  0.3125900211258646  0.1876268642653868
  0.3126121801198497  0.4375692972129356  0.1876262473003511
  0.2499387928213747  0.2499186602883742  0.0000711560130573
  0.3749417495326842  0.3749223754131495  0.0000590559887508
  0.3750380291390421  0.2500461654534145  0.1251129765548933
  0.2500669327499724  0.3750164894091564  0.1251147733408854
  0.3121934178296112  0.3121736981972988  0.8128511830941082
  0.4371663049282099  0.4371443311473809  0.8129329152596318
  0.4374059829180015  0.3122807904461908  0.9376306395388386
  0.3123001922783604  0.4373864558013710  0.9376311254351153
  0.2498701868654326  0.2498478636354182  0.7500737756327938
  0.3746459281704189  0.3746242140229410  0.7503914899448324
  0.3748858830375285  0.2497653538316312  0.8752247162909103
  0.2497869606543646  0.3748666436961582  0.8752244880000263
  0.3123815790956792  0.5624862901362370  0.0624829266925513
  0.4374128505178459  0.6875328276197867  0.0624330536243336
  0.4374364411791581  0.5625852417337488  0.1872782925353548
  0.3122518332497170  0.6876215748805596  0.1872180659998006
  0.2498914807622775  0.4999526671772873  0.0000384647866845
  0.3748992220944280  0.6250099624918343  0.0000193313930250
  0.3749320731825820  0.4999738810719722  0.1249098887154025
  0.2498580325571791  0.6250317666682211  0.1247972397687759
  0.3121000611084930  0.5623623213164819  0.8128163373234487
  0.4372256788012646  0.6874889436879492  0.8127938743130710
  0.4373922036079086  0.5623738724053624  0.9375727846276525
  0.3123798986432177  0.6875183502554016  0.9375930487940434
  0.2488709789875478  0.5000110033501800  0.7510090288555858
  0.3745407247970676  0.6251806714895233  0.7504431608358583
  0.3747902629299162  0.4999254894809744  0.8751846377861976
  0.2497887088667562  0.6250208969030189  0.8751572534547182
  0.3123910915831478  0.8125172873239180  0.0623737801933308
  0.4374007389035937  0.9376817440065336  0.0623344993555255
  0.4373315936985015  0.8131048730007632  0.1868335305389835
  0.3123785237942635  0.9376307692245156  0.1874091784068035
  0.2498908547719472  0.7500215649619340  0.9999796179896240
  0.3749137925036260  0.8750742415032259 -0.0000115473908251
  0.3748673686101740  0.7500764424675564  0.1247821726904379
  0.2499370596381982  0.8750417425563338  0.1249299441773332
  0.3121984047786598  0.8128151227603263  0.3122085469328140
  0.4374067022107810  0.9375950192131465  0.3123102201672537
  0.4371657797188875  0.8128961651260604  0.4371761902866596
  0.3123003263978637  0.9375947663525830  0.4374162210539319
  0.2498712066863810  0.7500400833117737  0.2498812398566645
  0.3748857909378651  0.8751875372387142  0.2498002866154263
  0.3746476131945756  0.7503556398821887  0.3746588642378791
  0.2497901075144930  0.8751875933467319  0.3748950578334656
  0.3121036058325405  0.8127798776091710  0.5623946780567710
  0.4373930017441736  0.9375388200690618  0.5624040778512600
  0.4372220713042890  0.8127592528898716  0.6875199923149550
  0.3123810810864850  0.9375590341037068  0.6875482994517050
  0.2488745219317700  0.7509682965415774  0.5000433474009803
  0.3747919263644749  0.8751477054789558  0.4999557215933251
  0.3745432167552549  0.7504072387834424  0.6252127455930955
  0.2497902884482503  0.8751241850159164  0.6250459138237113
  0.3123707289754623  0.8124764073063635  0.8125068895870151
  0.4374023603749662  0.9375325878285512  0.8124969768341236
  0.4374016566329273  0.8124667892876805  0.9375660114916364
  0.3124254235912829  0.9374862255980344  0.9375176384340798
  0.2498086852900560  0.7500529679767041  0.7500853162763877
  0.3748085562916217  0.8751270800607939  0.7501537855736359
  0.3748080523399693  0.7501229057093765  0.8751600049553290
  0.2498332208150300  0.8749705511829323  0.8749967724227147
  0.5625499310428805  0.0623282038986162  0.0623585299103336
  0.6875641552425130  0.1873182264961126  0.0623942451599467
  0.6875651526459428  0.0623640591588879  0.1873463742900470
  0.5626078615517380  0.1873214925887444  0.1873544741895112
  0.4999489514430490  0.9998320103783724 -0.0001371741399647
  0.6250254508137927  0.1248061043171273  0.9999739926531801
  0.6250218407799730  0.9999419476977095  0.1248370170994868
  0.4999625833396588  0.1248548454394173  0.1248866496734834
  0.5625076266562559  0.0624465628154255  0.3123884665381898
  0.6876456598755167  0.1871835382267570  0.3122618955765663
  0.6875567173886271  0.0623967550932663  0.4374199778820975
  0.5626083673303046  0.1872420780298291  0.4374475739730009
  0.4999726748996960  0.0000053250563497  0.2498985162371991
  0.6250518760722138  0.1247632661258005  0.2498677331747078
  0.6250305558941186 -0.0000155571425293  0.3749095882598685
  0.4999945393593609  0.1248746974634223  0.3749423626649527
  0.5624614529482657  0.0624286005037939  0.5624716807575240
  0.6876469416684845  0.1871673978607007  0.5625280578595440
  0.6875248647902280  0.0623410510933321  0.6875344694979558
  0.5625174825046204  0.1871675796649908  0.6876579154307991
  0.4999506322456754  0.9999512670471464  0.4999606120873473
  0.6250298030199637  0.1248211771255669  0.5000194903893490
  0.6249781118001229  0.9999234102412649  0.6249876937403414
  0.5000092305039167  0.1248212568205184  0.6250403540654547
  0.5624909488695851  0.0623335224488345  0.8125186961769754
  0.6874966594618513  0.1873554321284119  0.8125380284610491
  0.6874547266451522  0.0623325087944929  0.9374280541815874
  0.5624710700007831  0.1873286044842137  0.9375689644427539
  0.4999349537339904  0.9999037018156886  0.7500279666453297
  0.6250309646844785  0.1247836440752337  0.7501190871544414
  0.6249452350650643  0.9997690874894185  0.8748880610100511
  0.5000145076186228  0.1245743115155454  0.8753233413044690
  0.5625081224844359  0.3123618002803439  0.0624823123505858
  0.6875546757464917  0.4373934882717516  0.0624309816364592
  0.6876432110289032  0.3122323896939345  0.1872185708000447
  0.5626080014280658  0.4374120350053975  0.1872790970002306
  0.4999710782514417  0.2498701167317095  0.0000386198782206
  0.6250312620410012  0.3748794887447348  0.0000200180259877
  0.6250513451848920  0.2498371618850270  0.1247961622698908
  0.4999946545476955  0.3749090903516147  0.1249120963469931
  0.5623836073376867  0.3120804398385221  0.8128167156032936
  0.6875106856994883  0.4372034339468538  0.8127922481758530
  0.6875379145337811  0.3123630145094859  0.9375939987841013
  0.5623939807631569  0.4373698947047919  0.9375721701975240
  0.5000334983857400  0.2488470868083871  0.7510096971885160
  0.6252028096781387  0.3745173099162070  0.7504447777499060
  0.6250375657957220  0.2497700861370798  0.8751580231225136
  0.4999479081821345  0.3747680294457530  0.8751834802075787
  0.5624623861226592  0.5624423385452604  0.0624679994490174
  0.6875237924550044  0.6875039598044206  0.0623734378824830
  0.6876445751917761  0.5624941555666516  0.1872038456881400
  0.5625147324716853  0.6876203607740027  0.1872046060042785
  0.4999487322257790  0.4999295981136163  0.9999869597187467
  0.6249762714628094  0.6249563915830588 -0.0000439406270105
  0.6250285098360594  0.4999884982097893  0.1248571087874253
  0.5000094314602724  0.6250068590143188  0.1248596386056250
  0.5621868345312538  0.5621667068407173  0.8128368174115449
  0.6872952657666932  0.6872752387949824  0.8122687590283292
  0.6874346368711080  0.5624109233455298  0.9375477148846072
  0.5624286312412506  0.6874127853467510  0.9375447077515480
  0.4996650942252249  0.4996412394035925  0.7505176988715252
  0.6244271720047168  0.6244038451972219  0.7497500902773667
  0.6249409590423630  0.4997991529760824  0.8751452086859094
  0.4998191259946744  0.6249214596004166  0.8751447713361517
  0.5624909963095113  0.8124865451081101  0.0623684412303620
  0.6874552583880682  0.9373957490526063  0.0623601542694960
  0.6874963512459142  0.8125077240338811  0.1873857434776225
  0.5624692870689120  0.9375354245326853  0.1873597018413376
  0.4999349516564821  0.7499944512537363  0.9999357833244756
  0.6249462794878583  0.8748541432277073  0.9997989981180631
  0.6250258665243553  0.7500851002167684  0.1248196929056648
  0.5000146986393024  0.8752889604598076  0.1246082616895369
  0.5623845793430874  0.8127806038885766  0.3121134607485138
  0.6875385047932251  0.9375596172239123  0.3123901389778045
  0.6875096009926980  0.8127598338630295  0.4372315777319385
  0.5623940708237627  0.9375389302809771  0.4374029119399793
  0.5000331605490919  0.7509705617465464  0.2488832828210790
  0.6250363443348363  0.8751244610651873  0.2497998370695399
  0.6252016089041629  0.7504076622629844  0.3745537824004718
  0.4999454496124586  0.8751477303094384  0.3748021201631536
  0.5621879349007280  0.8128009455024787  0.5621982817658167
  0.6874346989587485  0.9375145549890479  0.5624392445406818
  0.6872952496404745  0.8122397234173357  0.6873051217131306
  0.5624301627260117  0.9375145237240623  0.6874447045201539
  0.4996650489936583  0.7504783480549622  0.4996763263936931
  0.6249416177209497  0.8751113901055499  0.4998267026730197
  0.6244276747294774  0.7497177686561552  0.6244388202152641
  0.4998167738248414  0.8751114158879773  0.6249520465878420
  0.5625949669767984  0.8122816611599288  0.8123138414682005
  0.6874210092394312  0.9372986986498117  0.8123674254396026
  0.6874215181885794  0.8123399035495392  0.9373305151273169
  0.5625380288670550  0.9372922795757866  0.9373233836183943
  0.4992832830901593  0.7499414274277664  0.7499748215500807
  0.6248046494469589  0.8748489064913809  0.7497699936141621
  0.6248019136030836  0.7497405559280778  0.8748832919876205
  0.4998146540921561  0.8748037969407092  0.8748358179374647
  0.8125105694386564  0.0624133247483541  0.0624409142590830
  0.9375194051680064  0.1874047781791149  0.0624804438424511
  0.9375185968260443  0.0624504811645613  0.1874277684709627
  0.8126014642872798  0.1873620403152898  0.1873878309698925
  0.7499415620646223  0.9998839904704278  0.9999105674573227
  0.8750040839270842  0.1248850123923887  0.9999593345275084
  0.8750023949694185  0.9999321383770238  0.1249122849627839
  0.7500222652459262  0.1248598939802766  0.1248859284074635
  0.8125367305382534  0.0623411081794002  0.3123973135734185
  0.9376551785636597  0.1873776884221458  0.3123884001456445
  0.9377080384643881  0.0623006614590453  0.4374080737690957
  0.8131298055021630  0.1867971377550749  0.4373387245050228
  0.7500426438037082  0.9999471498010674  0.2498973617503490
  0.8750617987102600  0.1249021482191475  0.2499435186015862
  0.8750960772493234  0.9999550464588499  0.3749226264430288
  0.7500972835900116  0.1247510411290085  0.3748769449770208
  0.8125085328761716  0.0623332172736468  0.5624995939532175
  0.9375586901211437  0.1873274015892857  0.5624801650179216
  0.9374178120160261  0.0623316309284022  0.6874633413489053
  0.8125278187667182  0.1873550350713492  0.6875061923870487
  0.7500178861616575  0.9999034073498937  0.4999436390481558
  0.8753146672036635  0.1245721819801512  0.5000231545546274
  0.8748779706789582  0.9997686169271641  0.6249535166154216
  0.7501090858839171  0.1247833212259828  0.6250403143753797
  0.8124601007173902  0.0623716766345531  0.8124691892520898
  0.9374422277605908  0.1873308297820447  0.8125052707654742
  0.9374517471384264  0.0624404566112578  0.9374605232121506
  0.8124952562324523  0.1873313511124915  0.9374526237973236
  0.7499381156335705  0.9997503680261473  0.7499471321694430
  0.8749417007218301  0.1248305246564345  0.7500217258303056
  0.8749198725433455  0.9998542752653479  0.8749282829441718
  0.7500128183985210  0.1248308794135815  0.8749512440636160
  0.8125369344362781  0.3123727019314421  0.0623743010543714
  0.9377047382211207  0.4373858382006732  0.0623347444397024
  0.9376519544507939  0.3123607047578472  0.1874072668591688
  0.8131260881096948  0.4373114948795724  0.1868351462132380
  0.7500407039702793  0.2498708660346079  0.9999806041769099
  0.8750955114482628  0.3748973734230388 -0.0000123012930909
  0.8750624012762086  0.2499183271645742  0.1249311826336073
  0.7500961880555002  0.3748494928588020  0.1247828073212148
  0.8128393263727552  0.3121747377356336  0.3122043235077542
  0.9376192376288104  0.4373866404987390  0.3123106803778817
  0.9376192697125881  0.3122805595061797  0.4374158052784574
  0.8129209912656926  0.4371443852999104  0.4371777012175492
  0.7500626484605802  0.2498483822736661  0.2498810794479865
  0.8752127885615641  0.3748668034151358  0.2497976898981187
  0.8752135307404209  0.2497654713973528  0.3748954035181424
  0.7503794791568089  0.3746244012872496  0.3746577142953252
  0.8128066929004710  0.3120795487246406  0.5623942070612992
  0.9375608262512208  0.4373696556400700  0.5624042626875646
  0.9375834612924488  0.3123621365306621  0.6875483717142827
  0.8127821796278653  0.4372029633600402  0.6875215963263835
  0.7510019771113869  0.2488435682296876  0.5000445601758361
  0.8751723396709014  0.3747677160476160  0.4999581896399147
  0.8751483781810436  0.2497690592753286  0.6250473147492048
  0.7504351499462092  0.3745165273453733  0.6252140763231407
  0.8124986335457529  0.3123530230880845  0.8125090811740913
  0.9375545891481306  0.4373845255704460  0.8124973536281698
  0.9375053070930121  0.3124092973165559  0.9375166298711278
  0.8124861536665304  0.4373848111232234  0.9375654125780780
  0.7500767435010162  0.2497873541925951  0.7500866971686739
  0.8751503344656416  0.3747867863283766  0.7501576725158337
  0.8749885690650380  0.2498185125209328  0.8749986422463413
  0.7501469403493107  0.3747872365362935  0.8751603650869548
  0.8125052488495753  0.5624723315962831  0.0623672681684981
  0.9374179555089955  0.6874393629993258  0.0623610262182038
  0.9375565807014852  0.5624515950904347  0.1873607940912145
  0.8125285205696884  0.6874773166847113  0.1873874879955661
  0.7500140954234112  0.4999179910468939  0.9999378398806621
  0.8748754704010018  0.6249294857245177  0.9997992286152479
  0.8753098701170061  0.4999963404165375  0.1246089096714827
  0.7501070818655760  0.6250088458852552  0.1248187586045012
  0.8128033817430145  0.5623622264663917  0.3121122587370834
  0.9375817514614808  0.6875179489253359  0.3123894550862795
  0.9375612158768155  0.5623738204703783  0.4374022892804160
  0.8127822090939300  0.6874889028945234  0.4372359883510749
  0.7509928698481149  0.5000103303971969  0.2488873596882703
  0.8751450555261525  0.6250200386950076  0.2497998259057762
  0.8751725430900986  0.4999251952744476  0.3748011551403246
  0.7504302837450646  0.6251802963566588  0.3745528811123154
  0.8128256208479189  0.5621667534392729  0.5621974999163502
  0.9375338664839850  0.6874128670452824  0.5624376977109727
  0.9375368936158786  0.5624109846782367  0.6874448916594472
  0.8122588130516457  0.6872756173294071  0.6873046715403268
  0.7505057719246512  0.4996409410677876  0.4996770894210018
  0.8751333667384550  0.6249213235917449  0.4998290790040297
  0.8751342896909573  0.4997990391043486  0.6249514430872953
  0.7497393553631436  0.6244045783650362  0.6244373333332079
  0.8123018874610464  0.5625776770398029  0.8123120865936523
  0.9373185688743269  0.6874041934243672  0.8123670858921617
  0.9373139498441135  0.5625211619770183  0.9373247952429841
  0.8123575705041698  0.6874039343776971  0.9373285458576310
  0.7499643317129526  0.4992651551054746  0.7499745784317627
  0.8748717499951844  0.6247839530004674  0.7497722724672093
  0.8748238830082773  0.4997998045636726  0.8748346289237737
  0.7497623329645369  0.6247835820483446  0.8748822331005530
  0.8124573344527267  0.8124411979898902  0.0624003003434080
  0.9374530334096146  0.9374361470857103  0.0624676447994003
  0.9374439624679810  0.8124755985273696  0.1873572202302295
  0.8124956948318053  0.9374247853301508  0.1873563970067322
  0.7499366731439578  0.7499202233425656  0.9997795106655819
  0.8749189362591787  0.8749020562889765  0.9998784948790310
  0.8749385085017141  0.7499919330630026  0.1248622673075253
  0.7500114897024597  0.8749204369982642  0.1248608183520150
  0.8124964322298956  0.8124760959741332  0.3123797464329140
  0.9375079951688545  0.9374857753674257  0.3124333748216202
  0.9375553312594775  0.8124664825654699  0.4374100380082329
  0.8124869241493932  0.9375327098909043  0.4374106034012890
  0.7500744258208866  0.7500522310870097  0.2498190409363426
  0.8749870660351405  0.8749697480175095  0.2498416774414207
  0.8751486638645245  0.7501222723651513  0.3748175225382241
  0.7501434671377365  0.8751271157343397  0.3748173669555077
  0.8123036014441435  0.8122820951291110  0.5626037338051859
  0.9373131741248927  0.9372919985978220  0.5625459599578612
  0.9373207765047226  0.8123401459140135  0.6874299235826427
  0.8123577009791161  0.9372984050840198  0.6874296624551711
  0.7499638449256514  0.7499420452328616  0.4992931303008520
  0.8748254986131844  0.8748037274868862  0.4998228047962166
  0.8748729367353727  0.7497409605690337  0.6248108846550310
  0.7497597513041740  0.8748487585031163  0.6248137653101900
  0.8123482443529623  0.8123309258345544  0.8123571203256831
  0.9373663510317388  0.9373506517766302  0.8124803489583611
  0.9373687080607298  0.8124547190883130  0.9373774699920185
  0.8124719669304142  0.9373508084672362  0.9373751564350576
  0.7496542571071370  0.7496375869564931  0.7496637931986959
  0.8748325989622384  0.8748108852208262  0.7498946912715156
  0.8748309756231704  0.7498687224395140  0.8748405418013746
  0.7498862025389404  0.8748107841824876  0.8748418765875922
  0.3126784736696658  0.3126558101652432  0.3126902061186638
  0.4379204336800623  0.4378955934278913  0.3128129169343141
  0.4379210566623185  0.3127717977043107  0.4379360049238119
  0.3127986808961152  0.4378961106113310  0.4379320617598630
  0.2500397258056871  0.2500210188223377  0.2500499967939145
  0.3751924279443709  0.3751663146627818  0.2503103249309845
  0.3751903883240572  0.2502726896485459  0.3752028314833563
  0.2502975427836289  0.3751665733953378  0.3752030685531044
  0.3123170435029473  0.3122968581954076  0.5628176480436465
  0.4341099828940098  0.4340849555580329  0.5690590540446805
  0.4371216841667684  0.3107705307625244  0.6890864032528926
  0.3107941253613370  0.4370988185514957  0.6890881450990483
  0.2498510494053378  0.2498300684895561  0.5000553125970064
  0.3748854697446394  0.3748604491879204  0.5003257777346032
  0.3747781179030059  0.2495813870990265  0.6251911356522809
  0.2496062128390442  0.3747562430521307  0.6251910166166343
  0.3123199117676987  0.5627804062049112  0.3123310504659648
  0.4371228164258877  0.6890479469736385  0.3108094974040719
  0.4341127248410240  0.5690057297509119  0.4341200651719588
  0.3108017391780986  0.6890438234111820  0.4371350009322614
  0.2498508588410412  0.5000232596177743  0.2498617342281916
  0.3747795081252306  0.6251543776918279  0.2496197266704407
  0.3748820997075386  0.5002884411502890  0.3748942280180513
  0.2496089001543099  0.6251538197182399  0.3747909146589120
  0.3119572333922401  0.5625443937514751  0.5625860912695426
  0.4365127036353510  0.6884683492574569  0.5618291470126149
  0.4365070924611928  0.5617894206668503  0.6885069652471749
  0.3122556108881504  0.6874942148340424  0.6875258263754856
  0.2495732591513835  0.5000409450246859  0.5000758021970302
  0.3724662046365814  0.6270810082250033  0.4998980809445173
  0.3724566358215227  0.4998577892420769  0.6271309722204840
  0.2496004057322143  0.6250279938618479  0.6250601674396531
  0.5628048630037399  0.3122985827318477  0.3123330736504460
  0.6890698897837837  0.4371007150577595  0.3108132193465661
  0.6890797394994026  0.3107655305729305  0.4371325026992060
  0.5690457914841892  0.4340800374437112  0.4341347000995884
  0.5000445571870298  0.2498311704919103  0.2498648508229231
  0.6251776389936603  0.3747572585392295  0.2496213672267035