SiVH3 a=5.46836113565                   
    1.000000000000000     
    21.8734445426000015    0.0000000000000000    0.0000000000000000
     0.0000000000000000   21.8734445426000015    0.0000000000000000
     0.0000000000000000    0.0000000000000000   21.8734445426000015
   Si   H 
   511     3
Direct
  0.0624920496805954  0.0624743265223209  0.0625008505489251
  0.1874826675581860  0.1874641255636817  0.0625883546126332
  0.1874834131567393  0.0625580014969928  0.1874924113404941
  0.0625784033284478  0.1874642790032551  0.1874919276824699
  0.9999395957382704  0.9999223535112509  0.9999481620108622
  0.1249639352733401  0.1249465441437216  0.9999803779438142
  0.1249642239456089  0.9999528841209340  0.1249728005581424
  0.9999712131239541  0.1249466607183870  0.1249725764276910
  0.0625101699635217  0.0624885162335738  0.3124835300815495
  0.1875676040706060  0.1875463479072125  0.3125386429608591
  0.1875289417437693  0.0625856437537635  0.4375043226380455
  0.0626080879505258  0.1875074245080210  0.4375040722446180
  0.9999811853837413  0.9999616593622300  0.2499566031949768
  0.1250419315990990  0.1250220713416324  0.2499740406774764
  0.1249710956939896  0.0000751170439412  0.3749857207692854
  0.0000974371952459  0.1249494972379528  0.3749854716192935
  0.0623484813011693  0.0623263449241506  0.5625556361803733
  0.1873430507950608  0.1873217695691622  0.5626197168497438
  0.1873339742523606  0.0623627570512586  0.6875744242224746
  0.0623835481978224  0.1873142081108171  0.6875748877767923
  0.9998543391349090  0.9998296717579838  0.4999560291145752
  0.1248761482113265  0.1248544052767329  0.4999707973093224
  0.1248262648512720  0.9999398541292018  0.6250311608799426
  0.9999623795712820  0.1248044875474595  0.6250319956949061
  0.0624289556297517  0.0624109678846387  0.8125196922543196
  0.1873770595771675  0.1873582226636806  0.8126110421856140
  0.1874196715323998  0.0624501299846634  0.9375295745212358
  0.0624684846930051  0.1874027887317949  0.9375295256950280
  0.9998997735571765  0.9998800750552215  0.7499510438687199
  0.1248771864486093  0.1248573413671384  0.7500325671562872
  0.1249005324955186  0.9999323757800088  0.8750115460979557
  0.9999507560893599  0.1248830036604742  0.8750120746882433
  0.0625094049670470  0.3124580908143974  0.0625199324116231
  0.1875291964674488  0.4374764693178056  0.0626194843639234
  0.1875678419187275  0.3125092681298933  0.1875782724913224
  0.0626081494906607  0.4374766293635463  0.1875393928092460
  0.9999814164530351  0.2499319111874330  0.9999912310661928
  0.1249704172269872  0.3749601461297861  0.0001077178075283
  0.1250420034551933  0.2499474754985538  0.1250517043987920
  0.0000965562041253  0.3749602866360757  0.1249806006628204
  0.0626063096005803  0.3124526558386618  0.3124825757855069
  0.1876189624950784  0.4375716623038585  0.3126252963482223
  0.1876181806800110  0.3125917324264484  0.4376043629958412
  0.0625328900681736  0.4374487265584117  0.4374804678421488
  0.0000648666174275  0.2499197285028865  0.2499476704226549
  0.1251052862711255  0.3750167921087408  0.2500783985894894
  0.1251053349507179  0.2500472239978458  0.3750459384309218
  0.0000496037659616  0.3749228425696007  0.3749529373852903
  0.0624692889437777  0.3123584325965017  0.5625166844487705
  0.1872672635416280  0.4374121164518404  0.5626210902769643
  0.1872034586567503  0.3122277182551780  0.6876575328410761
  0.0624181102191195  0.4373918332999784  0.6875646771323023
  0.0000303665730142  0.2498693073484181  0.4999819094309020
  0.1248985950299210  0.3749109862922418  0.5000071618748761
  0.1247851119770462  0.2498362662997464  0.6250611913201081
  0.0000102015628615  0.3748809247958360  0.6250397837691419
  0.0623612580207290  0.3123687025347906  0.8125502692571003
  0.1868169840927540  0.4373066835650692  0.8131403852063178
  0.1873944226398006  0.3123588305207879  0.9376669484875737
  0.0623219067386758  0.4373826697686623  0.9377162762526905
  0.9999697119260220  0.2498667819192422  0.7500536477650118
  0.1247723724402149  0.3748495801157897  0.7501098837663289
  0.1249197457217081  0.2499175869168420  0.8750736675365182
 -0.0000226620884943  0.3748960928234269  0.8751074905081730
  0.0623477529253651  0.5625299115748407  0.0623586772247892
  0.1873353620832480  0.6875459313903005  0.0623952931985133
  0.1873438815870327  0.5625889381917302  0.1873542708142132
  0.0623852883647380  0.6875456023880001  0.1873452483839378
  0.9998509813854639  0.4999316518998184 -0.0001364753135442
  0.1248255883132122  0.6250056537936135  0.9999720494429710
  0.1248754020579966  0.4999437502123281  0.1248860478557962
  0.9999610547856920  0.6250052253884056  0.1248364582018311
  0.0624705784292411  0.5624858151757549  0.3123903230698687
  0.1872069221093997  0.6876232705685649  0.3122605652035199
  0.1872687344413462  0.5625861410027105  0.4374461943774379
  0.0624194894902758  0.6875321100908947  0.4374210686255330
  0.0000297388663060  0.4999535769841235  0.2499009412219724
  0.1247865226523066  0.6250305059053216  0.2498681325381615
  0.1248991636928941  0.4999750672503422  0.3749433098708675
  0.0000099830521162  0.6250085881768428  0.3749109093950573
  0.0624526484401309  0.5624410478451434  0.5624722121156407
  0.1871907253917931  0.6876218261917956  0.5625259560341648
  0.1871894744396751  0.5624943523709505  0.6876562284901176
  0.0623630712504192  0.6875034359614256  0.6875323809701146
  0.9999775905650897  0.4999288053227542  0.4999595782632207
  0.1248446333391935  0.6250096211123559  0.5000194025046582
  0.1248438997525281  0.4999885622747415  0.6250423532978812
 -0.0000540188158712  0.6249560838963223  0.6249852661781624
  0.0623532852891750  0.5624716371438606  0.8125167924174691
  0.1873738560388049  0.6874763434881940  0.8125373265753598
  0.1873460361078915  0.5624506325418958  0.9375701424912180
  0.0623481354911190  0.6874385871782723  0.9374229534467425
  0.9999257744807341  0.4999178149900788  0.7500251544637018
  0.1248054680855849  0.6250115802686298  0.7501188656615921
  0.1245937590605034  0.4999973109393957  0.8753268471619582
  0.9997866505159341  0.6249288107379829  0.8748847824220785
  0.0624300387412970  0.8124928408998722  0.0624389051508164
  0.1874205806345498  0.9375005962477257  0.0624788426744714
  0.1873793519358768  0.8125796942409964  0.1873885596580420
  0.0624698476608266  0.9375005668142943  0.1874288653432601
  0.9998989041805787  0.7499256985644076  0.9999085825280877
  0.1249007176629107  0.8749850303247357  0.9999594967181785
  0.1248772871962315  0.7500046292600437  0.1248870682108296
  0.9999504576091131  0.8749847867728271  0.1249093374695600
  0.0623633193977692  0.8125177253888909  0.3123961352678828
  0.1873961387193991  0.9376332739644234  0.3123870597848197
  0.1868220110906161  0.8131023528705400  0.4373361819403497
  0.0623249258987074  0.9376812016103139  0.4374078346814421
  0.9999689673453690  0.7500232305107984  0.2498952899403666
  0.1249202758003675  0.8750428190295528  0.2499445059617788
  0.1247740162106770  0.7500765344851256  0.3748782127110828
 -0.0000219993986949  0.8750749501729866  0.3749211692493258
  0.0623544577127345  0.8124844788188322  0.5624977349231014
  0.1873467573414450  0.9375357249745458  0.5624777042111683
  0.1873740769623988  0.8125060102929700  0.6875046951425554
  0.0623478018460158  0.9373928470439000  0.6874638456243647
  0.9999260933139436  0.7499935059838966  0.4999445084713904
  0.1245970565719486  0.8752913617194873  0.5000230043194460
  0.1248062361197056  0.7500875471971119  0.6250394168207452
  0.9997876666540092  0.8748538966475480  0.6249534722679443
  0.0623863360875999  0.8124395499039726  0.8124661174694121
  0.1873456698706914  0.9374232396634949  0.8125036796690825
  0.1873462725671441  0.8124757303897758  0.9374526633530534
  0.0624572759267720  0.9374338378595495  0.9374602330797573
  0.9997656359395455  0.7499177325178216  0.7499447177850659
  0.1248479435502646  0.8749226159608188  0.7500181343232331
  0.1248475897336105  0.7499921859178027  0.8749511201061342
  0.9998677034172120  0.8749011384352712  0.8749270454804536
  0.3124751855849239  0.0624886625703603  0.0625202279537680
  0.4374950438539021  0.1875078895605239  0.0626191087962793
  0.4374951219806388  0.0625863974932747  0.1875395944838135
  0.3125289642385981  0.1875464869144123  0.1875782560518683
  0.2499484914330817  0.9999619519975791  0.9999907799610488
  0.3749772831961879  0.1249496467886857  0.0001078368526395
  0.3749773884090286  0.0000755187083093  0.1249812439863111
  0.2499653581438469  0.1250222584857898  0.1250516363625811
  0.3124730253477714  0.0625839496951281  0.3124830830490941
  0.4375934749242631  0.1875958681473068  0.3126258633283866
  0.4374697622106532  0.0625090536184102  0.4374802943949574
  0.3126136558591034  0.1875953763058383  0.4376048443374497
  0.2499389416183050  0.0000434567724615  0.2499481988654760
  0.3750364270400987  0.1250838079470806  0.2500788851296551
  0.3749431567007935  0.0000263378699007  0.3749530349554142
  0.2500681275448297  0.1250835001333916  0.3750461914653264
  0.3123789516343077  0.0624465144382757  0.5625165620355898
  0.4374343511791922  0.1872430401968213  0.5626213583924309
  0.4374107621035623  0.0623954581081814  0.6875646710437645
  0.3122480615811551  0.1871824484236256  0.6876571012484891
  0.2498907161524377  0.0000070041176542  0.4999815764048433
  0.3749324977621679  0.1248750017295141  0.5000072787353329
  0.3749009182071503 -0.0000130826783227  0.6250392729601779
  0.2498570231849383  0.1247634836335622  0.6250608735373966
  0.3123860652944373  0.0623406328083129  0.8125495350364559
  0.4373255837158842  0.1867962176897509  0.8131395515802102
  0.4373992295828096  0.0623013854022136  0.9377154533040890
  0.3123767711801263  0.1873741979446659  0.9376669884634119
  0.2498858887139307  0.9999480286829875  0.7500522625486724
  0.3748685223501474  0.1247507452442603  0.7501095729102273
  0.3749129181911848  0.9999563114283712  0.8751065613856854
  0.2499352954199541  0.1249000285767230  0.8750733185896007
  0.3124729489102590  0.3124525807166322  0.0626176925488883
  0.4374701411671181  0.4374489584270798  0.0625448624157037
  0.4375939624239230  0.3125918423630379  0.1876306550080160
  0.3126151382949581  0.4375714220484077  0.1876309099084476
  0.2499386253644127  0.2499196024426927  0.0000755787016951
  0.3749430750282500  0.3749229777597156  0.0000611320558949
  0.3750366550177715  0.2500473575508520  0.1251166472900738
  0.2500686208951520  0.3750167841552952  0.1251165341107560
  0.3121917424544047  0.3121708263544895  0.8128527505013458
  0.4371604051613731  0.4371385905928980  0.8129366680508622
  0.4374040163504652  0.3122777077688872  0.9376322956160489
  0.3122982803065712  0.4373844374344663  0.9376323947867439
  0.2498686697804658  0.2498481325451915  0.7500755599196383
  0.3746457650196169  0.3746222674866721  0.7503952583280987
  0.3748860369994623  0.2497670063295273  0.8752260023606737
  0.2497881456922395  0.3748666770076864  0.8752255875590752
  0.3123803163340487  0.5624858890575039  0.0624818267318181
  0.4374117550188061  0.6875322106350564  0.0624304668763668
  0.4374353595004485  0.5625862059071292  0.1872808324137221
  0.3122503385654073  0.6876236593186549  0.1872167560652034
  0.2498905431962723  0.4999537077138699  0.0000412532790695
  0.3749011042328317  0.6250088093174170  0.0000213641342596
  0.3749328458383566  0.4999751173863554  0.1249110407981252
  0.2498577381728894  0.6250307695534770  0.1247968272924408
  0.3120985302266435  0.5623610505419858  0.8128178733600365
  0.4372200582072173  0.6874865705062605  0.8127950454041308
  0.4373865962869047  0.5623716435355053  0.9375756324172484
  0.3123776043839147  0.6875155063054154  0.9375914753213503
  0.2488687557932285  0.5000112364096737  0.7510102702929783
  0.3745370325590454  0.6251806615444906  0.7504475103587877
  0.3747885076873070  0.4999247412539862  0.8751875317487139
  0.2497877350659531  0.6250203572058691  0.8751604162445350
  0.3123874802306135  0.8125183353732548  0.0623731203540408
  0.4373996281255454  0.9376828197943043  0.0623340092285102
  0.4373268650491449  0.8131042510899881  0.1868305936690511
  0.3123783257873961  0.9376334454384621  0.1874059154635050
  0.2498858392852872  0.7500239685274198 -0.0000205858046787
  0.3749129039997744  0.8750757011557043 -0.0000119464379264
  0.3748688448284416  0.7500769659944778  0.1247842038795335
  0.2499358245574797  0.8750430953796363  0.1249299143869887
  0.3121943384154182  0.8128158334011750  0.3122045181782072
  0.4374047023181611  0.9375971035713644  0.3123091195896207
  0.4371616815185501  0.8128992657847710  0.4371721423166406
  0.3122991898753816  0.9375968380902810  0.4374143112730110
  0.2498699375659070  0.7500423836790526  0.2498799772615924
  0.3748865250062174  0.8751905860472918  0.2497995930690035
  0.3746466746485989  0.7503568654330826  0.3746578970182422
  0.2497894180238528  0.8751906143902334  0.3748959086679615
  0.3121003034939855  0.8127813784508116  0.5623918724368004
  0.4373865506693067  0.9375405163293314  0.5624023754948477
  0.4372204457528675  0.8127605404885714  0.6875179961011464
  0.3123771161261388  0.9375575615514393  0.6875451483395471
  0.2488737679933466  0.7509706510638935  0.5000420869088811
  0.3747891224374462  0.8751517479667228  0.4999555626674524
  0.3745380868980017  0.7504113373366336  0.6252128409983849
  0.2497887184039831  0.8751265348828305  0.6250482074379536
  0.3123676369991138  0.8124758521445936  0.8125067990645037
  0.4374012404775524  0.9375316786351947  0.8124971373173143
  0.4374015008100122  0.8124660157743284  0.9375645431664597
  0.3124219807322477  0.9374843450294070  0.9375151203736679
  0.2498063535235227  0.7500558678701029  0.7500862059709946
  0.3748045302443468  0.8751288884306893  0.7501538208931310
  0.3748042414670822  0.7501236026444861  0.8751617530151692
  0.2498337818529997  0.8749709555363477  0.8749998473468460
  0.5625469622444382  0.0623276966186153  0.0623588704358228
  0.6875646516947957  0.1873158847304967  0.0623947658835584
  0.6875650657978075  0.0623634721556831  0.1873434522680203
  0.5626093405903142  0.1873231366739195  0.1873555640543755
  0.4999479990407280  0.9998312946882133 -0.0001364314227623
  0.6250230756022788  0.1248058310675014  0.9999725985575076
  0.6250224994123960  0.9999403109210541  0.1248356553064080
  0.4999619202569006  0.1248553797298873  0.1248873702508874
  0.5625064182088561  0.0624470552536207  0.3123894110715703
  0.6876464048932938  0.1871823838042377  0.3122586319779220
  0.6875542794525994  0.0623955495639660  0.4374204570639347
  0.5626099624411349  0.1872431456632722  0.4374459175444128
  0.4999722629484608  0.0000072797887528  0.2499007634367411
  0.6250510494606227  0.1247634820346298  0.2498672557755795
  0.6250291448438422 -0.0000130476562999  0.3749106091673792
  0.4999967217394640  0.1248751383095128  0.3749433326498333
  0.5624620558023949  0.0624287682308399  0.5624723800113400
  0.6876464353766029  0.1871648781310610  0.5625266440811452
  0.6875235750832382  0.0623404418736758  0.6875332907562806
  0.5625160303377134  0.1871651169989740  0.6876573326317320
  0.4999495422013942  0.9999537695836892  0.4999596328422440
  0.6250326984003541  0.1248196757776854  0.5000201407102033
  0.6249764185659255  0.9999229029362702  0.6249861123466453
  0.5000098520916787  0.1248198337923246  0.6250432043481142
  0.5624892202498412  0.0623313974258975  0.8125174529935855
  0.6874959110853109  0.1873531524967589  0.8125380655544896
  0.6874555903673131  0.0623286220614041  0.9374232171207915
  0.5624686775683662  0.1873255332842235  0.9375697893163274
  0.4999360592387154  0.9999034348936098  0.7500253648873103
  0.6250319361808276  0.1247822977123650  0.7501208436980920
  0.6249458742822271  0.9997658355414240  0.8748859985188903
  0.5000150406249921  0.1245729990058743  0.8753266888589335
  0.5625063329271552  0.3123593457191943  0.0624812750658793
  0.6875533654795669  0.4373923115963583  0.0624301700128309
  0.6876451863804321  0.3122293723437604  0.1872171120875595
  0.5626092677909749  0.4374126174417933  0.1872806509082600
  0.4999726134613199  0.2498699522263075  0.0000414764169327
  0.6250293298978644  0.3748813378278457  0.0000216029390749
  0.6250506126018519  0.2498375021436445  0.1247974664207552
  0.4999964646615310  0.3749113730499617  0.1249110905469271
  0.5623819072868697  0.3120769128739370  0.8128179325151879
  0.6875080841530870  0.4372000239943086  0.8127949418982224
  0.6875356066362150  0.3123583711600184  0.9375911801988834
  0.5623922301986242  0.4373663076345285  0.9375756375815495
  0.5000328081205692  0.2488465383122088  0.7510097144207508
  0.6252038390937709  0.3745141091510857  0.7504482134952004
  0.6250402737663124  0.2497669949777651  0.8751612928551193
  0.4999458264104181  0.3747671405248615  0.8751879230119594
  0.5624618189256496  0.5624410226701285  0.0624644716397845
  0.6875225647536697  0.6875030882939711  0.0623739504416809
  0.6876444652164487  0.5624941640366936  0.1872020823457874
  0.5625156304535547  0.6876215395322092  0.1872022572658661
  0.4999493269898419  0.4999288548286778  0.9999893105028220
  0.6249751550058222  0.6249556658823188 -0.0000427177259574
  0.6250308106407755  0.4999883690615935  0.1248565781985419
  0.5000089365671333  0.6250093843805786  0.1248564428785950
  0.5621890049782567  0.5621675749207414  0.8128358805960373
  0.6872876755038625  0.6872678045213777  0.8122665388312319
  0.6874328847357087  0.5624088220827321  0.9375474984948227
  0.5624274896356357  0.6874126574787058  0.9375475846490664
  0.4996611509704769  0.4996374294886918  0.7505182540659878
  0.6244243135751193  0.6244017369852545  0.7497565175525555
  0.6249433840812990  0.4997938009064718  0.8751471509030541
  0.4998142290406994  0.6249220488986024  0.8751467805067237
  0.5624890994084175  0.8124844832926945  0.0623648262482216
  0.6874553768431385  0.9373930739764530  0.0623572861150240
  0.6874951495710095  0.8125059507747588  0.1873839806374133
  0.5624687486858445  0.9375366183833301  0.1873563774427332
  0.4999355449696329  0.7499935159664161  0.9999368831201784
  0.6249450884028981  0.8748536107139410  0.9997976546482436
  0.6250295925888015  0.7500868622876701  0.1248172085314369
  0.5000143741638737  0.8752927800401449  0.1246059873818516
  0.5623817605642072  0.8127821529127096  0.3121101755030181
  0.6875352828617284  0.9375581372099364  0.3123863078981589
  0.6875075722464924  0.8127611301514002  0.4372299910317047
  0.5623922658223433  0.9375406253898957  0.4373964911779353
  0.5000318907484061  0.7509728868338638  0.2488824975201610
  0.6250385364055702  0.8751268350496568  0.2497983145712548
  0.6252017855359179  0.7504118413941873  0.3745486202097273
  0.4999452853769397  0.8751518075154255  0.3747993387294908
  0.5621891182097875  0.8128012381729527  0.5621995317441751
  0.6874332365711038  0.9375144349685816  0.5624367436914852
  0.6872875521940809  0.8122360913797453  0.6872975185304627
  0.5624274842706639  0.9375143691651436  0.6874432690748165
  0.4996612955950228  0.7504807596549565  0.4996724942028373
  0.6249429301701152  0.8751124077280676  0.4998242599506839
  0.6244239104093959  0.7497233892671077  0.6244350368404323
  0.4998142840617547  0.8751124446309175  0.6249533880215005
  0.5625895894468711  0.8122808762256366  0.8123122868465965
  0.6874225361670273  0.9372972953159591  0.8123688670294269
  0.6874221890550521  0.8123392392812528  0.9373270446055131
  0.5625377982672004  0.9372900442772216  0.9373219608498745
  0.4992799418116629  0.7499438292019270  0.7499769137285999
  0.6247985699660404  0.8748477442240776  0.7497693908828998
  0.6247982056643473  0.7497382730764521  0.8748792110385902
  0.4998143240866043  0.8748018357710367  0.8748336719291917
  0.8125106698384992  0.0624115660942805  0.0624381474855330
  0.9375196073975479  0.1874031681425340  0.0624781370949132
  0.9375201396253351  0.0624504713820093  0.1874282476149495
  0.8126004782310444  0.1873592399966783  0.1873870005489857
  0.7499425610408708  0.9998802544179192  0.9999089214302989
  0.8750030740505720  0.1248832442797660  0.9999597348011983
  0.8750025646980207  0.9999324145831193  0.1249090910640208
  0.7500231413022624  0.1248580629406023  0.1248865334894932
  0.8125396088705565  0.0623407455840561  0.3123947546357354
  0.9376561526309048  0.1873746397091533  0.3123858272356181
  0.9377064136678851  0.0622998989101581  0.4374073530758102
  0.8131308044303995  0.1867940246788958  0.4373351711192255
  0.7500427672492682  0.9999479711996025  0.2498945966790641
  0.8750632198342694  0.1249003274162738  0.2499439176931932
  0.8750967662009975  0.9999558723879152  0.3749209299104934
  0.7500994838544182  0.1247502567743866  0.3748779366922987
  0.8125072701293403  0.0623310478692043  0.5624980141140330
  0.9375595454060144  0.1873243440730497  0.5624779301219170
  0.9374130319438971  0.0623277735990202  0.6874643644624302
  0.8125278584673158  0.1873528164107637  0.6875055239354065
  0.7500152726354640  0.9999031590979571  0.4999448993508512
  0.8753179574302862  0.1245709144033044  0.5000238312572001
  0.8748758767980922  0.9997653386511548  0.6249543077179581
  0.7501108091063190  0.1247819710059198  0.6250413602680311
  0.8124576860280105  0.0623676477567994  0.8124669131363482
  0.9374425246423782  0.1873279492630140  0.8125043546238466
  0.9374513420362975  0.0624399471878220  0.9374602320506963
  0.8124943237771315  0.1873284910198164  0.9374529084981184
  0.7499370889159932  0.9997446455568109  0.7499462674275510
  0.8749431444481698  0.1248279901727761  0.7500196777064303
  0.8749189098933240  0.9998496245335399  0.8749275161814939
  0.7500106499769120  0.1248283270482392  0.8749527391206068
  0.8125384801395311  0.3123697281934744  0.0623729256006509
  0.9377031024122457  0.4373829853445640  0.0623344037066038
  0.9376556414686694  0.3123594152341838  0.1874045465078361
  0.8131257917351702  0.4373073848197205  0.1868314785021838
  0.7500432480024727  0.2498676470761946 -0.0000197952168286
  0.8750957959612994  0.3748963433990643 -0.0000114350929913
  0.8750631437739543  0.2499180652894191  0.1249294485760439
  0.7500976618737528  0.3748500333117617  0.1247850525561022
  0.8128410000067551  0.3121717149285356  0.3122025982305979
  0.9376205866398509  0.4373846174855460  0.3123088348342560
  0.9376210009617048  0.3122774971947319  0.4374139155698366
  0.8129248186863457  0.4371386361377528  0.4371718502924150
  0.7500645078731926  0.2498485769755356  0.2498795098725633
  0.8752139294404203  0.3748668059659818  0.2497988486148942
  0.8752148735910732  0.2497670624146611  0.3748956582847074
  0.7503832905885586  0.3746224195214566  0.3746575348598628
  0.8128079213900978  0.3120759895732394  0.5623925441655405
  0.9375643215691638  0.4373660580493960  0.5624026120066100
  0.9375806461113716  0.3123575005493345  0.6875461295807936
  0.8127848910207008  0.4371996126613035  0.6875190247900168
  0.7510019312031907  0.2488431267570127  0.5000438779254255
  0.8751768147847901  0.3747668244173167  0.4999561798102692
  0.8751515663215856  0.2497659864156235  0.6250501555126577
  0.7504385543375046  0.3745133369988123  0.6252150438814976
  0.8124972349582141  0.3123489792955133  0.8125076951388903
  0.9375535991101542  0.4373840820356591  0.8124977327399296
  0.9375044024057689  0.3124055373038859  0.9375157128775067
  0.8124865767579623  0.4373843782209629  0.9375643558229804
  0.7500782864848754  0.2497848178386243  0.7500882607701480
  0.8751523627615511  0.3747850427157153  0.7501554855188755
  0.8749911900889707  0.2498160747824989  0.8750014090933512
  0.7501447412945206  0.3747854913226961  0.8751624260490951
  0.8125055338315444  0.5624715402372145  0.0623646851148671
  0.9374131375571965  0.6874383337080761  0.0623580388593833
  0.9375582965131801  0.5624505556594606  0.1873570890736745
  0.8125267027315939  0.6874760908087761  0.1873842041389474
  0.7500140989755805  0.4999177058414589  0.9999371599706328
  0.8748740709225069  0.6249284112134637  0.9997976283978725
  0.8753131933469528  0.4999969725488365  0.1246070727967256
  0.7501075804523355  0.6250107765820381  0.1248172629752517
  0.8128050622429140  0.5623609940021611  0.3121106484725519
  0.9375802090051605  0.6875151176718246  0.3123872900973284
  0.9375640924668490  0.5623715847602481  0.4373967159832932
  0.8127834512267830  0.6874865552072962  0.4372304401538676
  0.7509944163508121  0.5000106244929086  0.2488848032982177
  0.8751482165986648  0.6250195477997116  0.2497988921118823
  0.8751755103100836  0.4999245142219130  0.3747994182477132
  0.7504347707567361  0.6251803478315469  0.3745490966850782
  0.8128247904217302  0.5621676111605063  0.5621997130869814
  0.9375367582997099  0.6874127537881433  0.5624367253790952
  0.9375366555877251  0.5624088733422069  0.6874431878033993
  0.8122565681536320  0.6872681418531039  0.6872971615415101
  0.7505064665482216  0.4996371529038916  0.4996730663374108
  0.8751353456970091  0.6249219497368749  0.4998243059639248
  0.8751362112435351  0.4997937484847626  0.6249539232833329
  0.7497458057660731  0.6244024429746676  0.6244344802662080
  0.8123016720246350  0.5625716193723855  0.8123118796773628
  0.9373173159888993  0.6874051931904275  0.8123682552786101
  0.9373105012591341  0.5625215546020021  0.9373213370603810
  0.8123586760532228  0.6874049238248203  0.9373272788177431
  0.7499665365227808  0.4992592521696584  0.7499768241930591
  0.8748689352731451  0.6247801349463041  0.7497687774490508
  0.8748227961806740  0.4997972440129171  0.8748335779790493
  0.7497587634750341  0.6247798089683718  0.8748794262912024
  0.8124572133220682  0.8124392507177318  0.0623954980650161
  0.9374515614275347  0.9374338964755610  0.0624658548048317
  0.9374433567429963  0.8124753469527773  0.1873550211682997
  0.8124945442320722  0.9374232404662338  0.1873543817431358
  0.7499352917473568  0.7499171104583285  0.9997758163229441
  0.8749182566971286  0.8749009943278665  0.9998765800104197
  0.8749411743090363  0.7499915290667227  0.1248573788142785
  0.7500090714155949  0.8749221058109251  0.1248572420396598
  0.8124964122436966  0.8124756184127605  0.3123767244328475
  0.9375054463498358  0.9374838794657230  0.3124301051940927
  0.9375539492868930  0.8124656976060208  0.4374100093917668
  0.8124870948280126  0.9375317840757260  0.4374096214552976
  0.7500753713454220  0.7500552244535840  0.2498166447405120
  0.8749900475643034  0.8749702282470595  0.2498424023648352
  0.8751504531645404  0.7501230277574054  0.3748137731661500
  0.7501435095409925  0.8751289549447212  0.3748134350527502
  0.8123020392790669  0.8122813058786200  0.5625985074168717
  0.9373117648635655  0.9372897617833592  0.5625459360539398
  0.9373173015598436  0.8123394703565940  0.6874307303471039
  0.8123590815237983  0.9372969960545017  0.6874312934074009
  0.7499659429217135  0.7499444635871001  0.4992898909235147
  0.8748233109841310  0.8748017521783569  0.4998226909031445
  0.8748688532886443  0.7497386969968675  0.6248072471521796
  0.7497591161997200  0.8748476160787302  0.6248077880232138
  0.8123469072275793  0.8123287188616580  0.8123559230903038
  0.9373657806567239  0.9373478665159337  0.8124773069121305
  0.9373658223906516  0.8124518864966297  0.9373746776637999
  0.8124688126014049  0.9373480080759340  0.9373746546606471
  0.7496541593176888  0.7496344298014476  0.7496638751156149
  0.8748266873445208  0.8748070726800183  0.7498919869303903
  0.8748259595938447  0.7498658758913258  0.8748355890982081
  0.7498833416364648  0.8748069779222410  0.8748360276689207
  0.3126799275629096  0.3126568495591640  0.3126915645638559
  0.4379276846708919  0.4379020371964064  0.3128167316068582
  0.4379266939017424  0.3127777638363385  0.4379413275100438
  0.3128028726466767  0.4379025438449416  0.4379390995244205
  0.2500438950259829  0.2500230238693485  0.2500542471304694
  0.3751957605996894  0.3751718833114197  0.2503142128126945
  0.3751949081650267  0.2502786125233149  0.3752072057475737
  0.2503016305323457  0.3751721554303664  0.3752063174095318
  0.3123225572725193  0.3123001757449861  0.5628185588610445
  0.4341127333552994  0.4340890934879781  0.5690678761652358
  0.4371221123179424  0.3107693901227512  0.6890898463928349
  0.3107912777216918  0.4370980228025100  0.6890924842510877
  0.2498557413360678  0.2498336118825668  0.5000581490225826
  0.3748909704128842  0.3748671793453194  0.5003295344928091
  0.3747810597059865  0.2495818251454759  0.6251910799973113
  0.2496045028281988  0.3747585504626919  0.6251916580317404
  0.3123218971388982  0.5627822943596937  0.3123329516590704
  0.4371229728289180  0.6890519422199345  0.3108067687469410
  0.4341163961121716  0.5690181886836563  0.4341236166654182
  0.3107990581095181  0.6890479129911713  0.4371350798764306
  0.2498549537385127  0.5000249173014318  0.2498658318397406
  0.3747814343391463  0.6251560532346665  0.2496173788663374
  0.3748871170397445  0.5002912772399359  0.3748990213465748
  0.2496066598763697  0.6251554529821826  0.3747927602168840
  0.3119563493119999  0.5625479941117297  0.5625875474643279
  0.4365066418756962  0.6884768006208087  0.5618233449884804
  0.4365044993704920  0.5617873781609682  0.6885160580567747
  0.3122517065622204  0.6874942985649117  0.6875278241650553
  0.2495761645761939  0.5000418061615276  0.5000777029731888
  0.3724612760145180  0.6270853514232330  0.4998989420969747
  0.3724535251828471  0.4998600924774128  0.6271330465553522
  0.2495991926388049  0.6250273903076904  0.6250613163253864
  0.5628059678906995  0.3123016218732133  0.3123381444068754
  0.6890746194973320  0.4370997959192890  0.3108099311841760
  0.6890830604249942  0.3107645974945572  0.4371329157936943
  0.5690548406068435  0.4340843329858814  0.4341365848659047
  0.5000473956701400  0.2498345664453039  0.2498693355423309
  0.6251785183594841  0.3747595041618081  0.2496193509463235