Si                                      
   1.00000000000000     
    21.8806751037877660    0.0000000000000000    0.0000000000000000
     0.0000000000000000   21.8806751037877660    0.0000000000000000
     0.0000000000000000    0.0000000000000000   21.8806751037877660
   Si   H 
   511     3
Direct
  0.0624713363192558  0.0625359610805819  0.0625359602782674
  0.0623346300483342  0.0622922598316664  0.5625740057327419
  0.0623346260554904  0.5625740078407385  0.0622922578101649
  0.0625457096479736  0.5625178616980863  0.5625178601074800
  0.5625326579267943  0.0627061497816981  0.0627061508701711
  0.5624100099536707  0.0624258710510741  0.5625974469524305
  0.5624100076920421  0.5625974442040802  0.0624258744996860
  0.5690332472369383  0.5659570548046718  0.5659570618384666
  0.1873708565715597  0.1875021507565710  0.0625445073677685
  0.1868455992338491  0.1868729288702708  0.5626539242658380
  0.1874180765806528  0.6875986738131804  0.0623558001921470
  0.1876124666678434  0.6873829530394211  0.5623922891292374
  0.6874167449469435  0.1876238154087797  0.0626587003324496
  0.6875272524256534  0.1872172900761604  0.5627533223405037
  0.6875552360477742  0.6875921127566154  0.0624208946672569
  0.6890646210998568  0.6891994738386448  0.5628840728392946
  0.1873708563362480  0.0625445096918118  0.1875021490467681
  0.1874180775803524  0.0623558008454372  0.6875986721957676
  0.1868455948858089  0.5626539317682299  0.1868729249952960
  0.1876124665523107  0.5623922900862195  0.6873829497557638
  0.6874167452939262  0.0626586992756059  0.1876238155603169
  0.6875552393060562  0.0624208905592931  0.6875921143484819
  0.6875272490281306  0.5627533260212487  0.1872172979993012
  0.6890646170523900  0.5628840584775799  0.6891994745294755
  0.0624205667280281  0.1875341145643823  0.1875341124808417
  0.0623728690380092  0.1874630512787661  0.6875887344691540
  0.0623728655908241  0.6875887375358891  0.1874630515938591
  0.0625877449437054  0.6875073061450089  0.6875073047967271
  0.5626035293927385  0.1877280561231801  0.1877280525698548
  0.5623913848657267  0.1871874312200821  0.6878886326268121
  0.5623913824670678  0.6878886341219725  0.1871874399985989
  0.5628042448437008  0.6876966484024276  0.6876966538157114
  0.9999566387003350  0.0000433602773111  0.0000433613777646
  0.9998430579129448  0.0001569448664073  0.5000298017718308
  0.9998430556535354  0.5000298023890417  0.0001569420538622
  0.9999939757716173  0.5000363282110010  0.5000363245859184
  0.4999701980849412  0.0001569404654567  0.0001569441115533
  0.4999636744861836  0.0000060231707938  0.5000363289835090
  0.4999636737696853  0.5000363263453618  0.0000060241163090
  0.1249188599763730  0.1249907613377959  0.0000390976047296
  0.1246151664690661  0.1246903894881765  0.4999708193518989
  0.1249837012652840  0.6250000457746776  0.9999078442750419
  0.1249052719757105  0.6250588633708509  0.4999867027919262
  0.6249411213271530  0.1250927381734207  0.0001782540783197
  0.6249557679170183  0.1248567460692029  0.5001581833633554
  0.6250486397108488  0.6250945288990202 -0.0000253834679315
  0.6270986504392628  0.6275440585785634  0.5001256573896095
  0.1249188599055719  0.0000390987390055  0.1249907605393498
  0.1249837020935404  0.9999078449670600  0.6250000453855130
  0.1246151642625907  0.4999708250296609  0.1246903861167147
  0.1249052725219753  0.4999867041822800  0.6250588594412915
  0.6249411213561742  0.0001782528219082  0.1250927394718267
  0.6250486423690461 -0.0000253873965362  0.6250945325400974
  0.6249557696368396  0.5001581857605699  0.1248567497987720
  0.6270986437303141  0.5001256394376835  0.6275440595978172
  0.9998944712685711  0.1250710297776399  0.1250710289481461
 -0.0000101625062618  0.1248948739677897  0.6250600400905432
 -0.0000101653246916  0.6250600419584199  0.1248948754732477
  0.0000458217431597  0.6250353465593828  0.6250353439559448
  0.4998285143797054  0.1251969483578149  0.1251969465086923
  0.4999592332024795  0.1248149059532957  0.6251963278929311
  0.4999592337247169  0.6251963295721352  0.1248149105752067
  0.5002956931681255  0.6251537340684421  0.6251537379166868
  0.0623844853714003  0.0625593089326894  0.3125390889787595
  0.0624816136551834  0.0624770469303992  0.8125627132109231
  0.0624338460008110  0.5625787316931301  0.3124321320939870
  0.0625997175936866  0.5624759530960604  0.8124615102733431
  0.5624374050013788  0.0624466075282668  0.3125469372633325
  0.5624785859915992  0.0624392882553414  0.8126387806046997
  0.5618052544389077  0.5634937952239893  0.3115011011257784
  0.5626149376980192  0.5625624466800848  0.8127257758338901
  0.1873975934487301  0.1874642532497349  0.3124976897566730
  0.1873958254079371  0.1874085885610549  0.8126041733960148
  0.1872168860596392  0.6877377598387806  0.3123465874311666
  0.1875633264301662  0.6874552785609588  0.8124366732577764
  0.6873011886235426  0.1877343146564973  0.3126988088498462
  0.6875023081820941  0.1874642505130352  0.8126024066863281
  0.6875234006966526  0.6877383261994711  0.3124766059398020
  0.6876534094374307  0.6877377558373883  0.8127831128889076
  0.1873612217877777  0.0624392901516944  0.4375214130068953
  0.1874372863678385  0.0624770469977461  0.9375183865553971
  0.1872742220967230  0.5625624530171741  0.4373850563563146
  0.1875384873270760  0.5624759524706726  0.9374002804834425
  0.6874530604227029  0.0624466081462848  0.4375625940333664
  0.6874609108993972  0.0625593070250233  0.9376155161856109
  0.6884989066961611  0.5634937989854701  0.4381947527749771
  0.6875678666846133  0.5625787280537039  0.9375661525287078
  0.0623727646180549  0.1874871859218086  0.4375037928463520
  0.0624425439481971  0.1874877585475334  0.9375574550234380
  0.0624808737659427  0.6876167439892433  0.4374824801826536
  0.0625115642372493  0.6874989741517226  0.9374884364840116
  0.5622099037279272  0.1871737954979979  0.4377900932829364
  0.5624962052114879  0.1874871823811594  0.9376272340824090
  0.5625602648258916  0.6880523694058684  0.4374397480834432
  0.5625175186709885  0.6876167393194152  0.9375191268074506
  0.9999179425414179  0.0000820577280300  0.2500562776495451
 -0.0000156592639526  0.0000156591948815  0.7500267336618525
  0.9999452482338501  0.5000569172552699  0.2499636981563153
  0.0000267493885177  0.5000073349565165  0.7500931645110911
  0.4999430839692245  0.0000547492311098  0.2499636955862434
  0.4999926657638051 -0.0000267506133202  0.7500931679052230
  0.4996846620017560  0.5003153420327405  0.2494774284970412
  0.5000565237531241  0.4999434716839098  0.7504255675886080
  0.1248811469517515  0.1250492381023381  0.2499863299319273
  0.1249366410616872  0.1249384776314554  0.7500440022502111
  0.1247915012646199  0.6251135849389110  0.2498923686350468
  0.1250964429391208  0.6249448531851726  0.7499228695370217
  0.6248161459409820  0.1251304877093225  0.2502355917969055
  0.6250530390502488  0.1248407032559063  0.7501943932435305
  0.6252167865904636  0.6254454508763061  0.2495532586642489
  0.6251797578310405  0.6252228703909100  0.7503872478887864
  0.1248531124422294  0.0000172724695779  0.3749717575892779
  0.1249778817025490  0.0000210343347462  0.8750221183771290
  0.1248613580701224  0.4999805630876336  0.3749576229099403
  0.1248733696345098  0.5000118811029539  0.8751266277258964
  0.6249922081452974  0.0000350691247101  0.3750077912440207
  0.6250282413070717  0.0000172709444234  0.8751468901878848
  0.6250249328727862  0.5027051697945579  0.3749750765764449
  0.6250423738879727  0.4999805593785695  0.8751386405491346
  0.9998217458962366  0.1250927401228866  0.3750588773292407
  0.9999609013724164  0.1249907605379141  0.8750811394945602
  0.0000253849633825  0.6250945345108579  0.3749513592041935
  0.0000921560490587  0.6250000458409366  0.8750162992895838
  0.4998418147107676  0.1248567464534493  0.3750442277348718
  0.5000291758050484  0.1246903866212879  0.8753848331286020
  0.4998743594968071  0.6275440543506785  0.3729013654618924
  0.5000132951856052  0.6250588600874822  0.8750947275344080
  0.0623844851244075  0.3125390903868139  0.0625593060543724
  0.0624338476333000  0.3124321327632698  0.5625787307467893
  0.0624816121228410  0.8125627142616485  0.0624770470243826
  0.0625997184415586  0.8124615128598682  0.5624759526565273
  0.5624374047530962  0.3125469393059598  0.0624466067720056
  0.5618052570282167  0.3115010901893473  0.5634937926694863
  0.5624785838051706  0.8126387782721317  0.0624392922323004
  0.5626149411608521  0.8127257761472962  0.5625624558706233
  0.1873612193950193  0.4375214158724398  0.0624392879302328
  0.1872742239594608  0.4373850627576423  0.5625624455319698
  0.1874372860481662  0.9375183866438537  0.0624770471276530
  0.1875384891107374  0.9374002821504052  0.5624759532934323
  0.6874530598236953  0.4375625953264017  0.0624466101281634
  0.6884989043948369  0.4381947433611601  0.5634937943776999
  0.6874609104933873  0.9376155133849469  0.0625593095138340
  0.6875678695376944  0.9375661522460541  0.5625787292432038
  0.1873975922745686  0.3124976939084003  0.1874642496078788
  0.1872168900251252  0.3123465898048738  0.6877377536684419
  0.1873958240646841  0.8126041757501218  0.1874085883140427
  0.1875633265506814  0.8124366732958488  0.6874552796055159
  0.6873011883189014  0.3126988138830125  0.1877343145284409
  0.6875234001233664  0.3124765972263458  0.6877383255539706
  0.6875023066404738  0.8126024060991097  0.1874642554049719
  0.6876534113620308  0.8127831134314880  0.6877377616018392
  0.0623727635621205  0.4375037963880854  0.1874871835202517
  0.0624808739858912  0.4374824809722804  0.6876167404128023
  0.0624425433257245  0.9375574568811098  0.1874877582770626
  0.0625115655280193  0.9374884362089972  0.6874989744661636
  0.5622099029755427  0.4377900990433161  0.1871737975886300
  0.5625602573699546  0.4374397336148352  0.6880523679213585
  0.5624962063845976  0.9376272334602971  0.1874871854005180
  0.5625175201574822  0.9375191249326535  0.6876167441537786
  0.9999179427327740  0.2500562782683657  0.0000820559317831
  0.9999452504182296  0.2499636977430177  0.5000569161563000
 -0.0000156607843350  0.7500267326984944  0.0000156606367688
  0.0000267498574340  0.7500931679505612  0.5000073344461270
  0.4999430843119260  0.2499636964693805  0.0000547483092583
  0.4996846619046249  0.2494774267258008  0.5003153321754846
  0.4999926654095271  0.7500931637232969 -0.0000267478229290
  0.5000565264975856  0.7504255686213003  0.4999434811166864
  0.1248531122404429  0.3749717594352494  0.0000172690869355
  0.1248613582430255  0.3749576259738271  0.4999805604332445
  0.1249778817556973  0.8750221178244101  0.0000210347199436
  0.1248733702001813  0.8751266312699338  0.5000118810368699
  0.6249922099083342  0.3750077900086521  0.0000350702326583
  0.6250249337419387  0.3749750636555804  0.5027051632179225
  0.6250282403264167  0.8751468865349835  0.0000172746116369
  0.6250423743331132  0.8751386398001829  0.4999805649961950
  0.1248811469814692  0.2499863322002230  0.1250492351893797
  0.1247915048197922  0.2498923691333464  0.6251135802652478
  0.1249366396332426  0.7500440037136659  0.1249384777872008
  0.1250964431451077  0.7499228711430708  0.6249448523490005
  0.6248161468939205  0.2502355954461105  0.1251304866883660
  0.6252167899672240  0.2495532469944366  0.6254454485841084
  0.6250530369894337  0.7501943923533841  0.1248407091599578
  0.6251797588370002  0.7503872459076240  0.6252228822005876
  0.9998217455721207  0.3750588795938486  0.1250927378055902
  0.0000253845039782  0.3749513600416819  0.6250945313529959
  0.9999609005843237  0.8750811403711587  0.1249907617704384
  0.0000921568911573  0.8750162989409093  0.6250000471959454
  0.4998418168565440  0.3750442322731488  0.1248567454828925
  0.4998743552045211  0.3729013555947095  0.6275440431493200
  0.5000291759892067  0.8753848322574970  0.1246903924562840
  0.5000132951631381  0.8750947266417486  0.6250588658679982
  0.0623923003874682  0.3124670857106211  0.3124670817906088
  0.0623989120519715  0.3124338917528885  0.8126417666779580
  0.0623989098878433  0.8126417712514714  0.3124338917851846
  0.0625793836202391  0.8125043718158018  0.8125043726887295
  0.5625176423916319  0.3125226433645694  0.3125226374004814
  0.5625229310380091  0.3123484093789159  0.8127916972751728
  0.5625229339419338  0.8127916991517046  0.3123484196157510
  0.5626285452672841  0.8126599624990918  0.8126599665895125
  0.1872082992539504  0.4374770702392542  0.3123484092625040
  0.1873400344636565  0.4373714539776384  0.8126599625000644
  0.1873582317623528  0.9376010888876619  0.3124338901710300
  0.1874956280469943  0.9374206168700011  0.8125043726991751
  0.6874773536198773  0.4374823628146930  0.3125226510944094
  0.6876515847986701  0.4374770643975568  0.8127916989942653
  0.6875329160658217  0.9376076963003293  0.3124670877538689
  0.6875661097688719  0.9376010885238705  0.8126417709563833
  0.1872082982847927  0.3123484160623102  0.4374770624514327
  0.1873582314841923  0.3124338914386946  0.9376010856299962
  0.1873400337893651  0.8126599666231197  0.4373714539106608
  0.1874956285052510  0.8125043716643563  0.9374206175891812
  0.6874773554972309  0.3125226432325222  0.4374823574945992
  0.6875329148818065  0.3124670828312775  0.9376076974128755
  0.6876515892952981  0.8127916981177034  0.4374770745336941
  0.6875661081451238  0.8126417672806663  0.9376010908119128
  0.0624714117249065  0.4375268384756115  0.4375268362664294
  0.0623404299024591  0.4374347951551602  0.9376595682764316
  0.0623404311559702  0.9376595713339044  0.4374347949785811
  0.0625030539529633  0.9374969452923503  0.9374969460364063
  0.5696213298927439  0.4303786673404014  0.4303786677060221
  0.5624731622152488  0.4375268359295248  0.9375285879234555
  0.5624731619650783  0.9375285868960421  0.4375268401444383
  0.5625652054234852  0.9376595671275152  0.9376595705799721
  0.9997916988102988  0.2500510542336813  0.2500510513229487
  0.9999790655064134  0.2499567608905957  0.7500857793333533
  0.9999790633612855  0.7500857825361168  0.2499567622168153
  0.0000573256116770  0.7500455653327565  0.7500455664684889
  0.4993059137457988  0.2500797950535267  0.2500797875724485
  0.5000408199273615  0.2490095490686453  0.7511030777317037
  0.5000408203753833  0.7511030834594347  0.2490095609285266
  0.5000587951439981  0.7501576648340241  0.7501576701047487
  0.1248313229654696  0.3749647967530671  0.2498761981004462
  0.1248015993113059  0.3749351312755911  0.7501283902199283
  0.1248917927222889  0.8751082074487914  0.2499779671359339
  0.1250458440535522  0.8749541562733935  0.7500227846597436
  0.6244402409411278  0.3755597648131253  0.2502623270371844
  0.6250583603031573  0.3749416348745152  0.7503850630704785
  0.6250352047395233  0.8751686746502886  0.2498762047172820
  0.6250648685184645  0.8751984016711352  0.7501283979811829
  0.1248313227559479  0.2498762018864921  0.3749647907160774
  0.1248917934059718  0.2499779675012522  0.8751082044159213
  0.1248015971101249  0.7501283956660786  0.3749351306335542
  0.1250458439869750  0.7500227837955673  0.8749541573565254
  0.6244402389522785  0.2502623272678978  0.3755597561174373
  0.6250352047282759  0.2498761987656779  0.8751686747673175
  0.6250583631062020  0.7503850637081967  0.3749416462316716
  0.6250648683390365  0.7501283915938473  0.8751984040342823
 -0.0000350706883999  0.3750077908032108  0.3750077905752183
  0.9999827283144415  0.3749717594460100  0.8751468861330227
  0.9999827279007253  0.8751468908136667  0.3749717605941601
 -0.0000210346900593  0.8750221174837477  0.8750221184509028
  0.4972948355700508  0.3749750656925673  0.3749750563621537
  0.5000194387045628  0.3749576233383934  0.8751386394095706
  0.5000194368866909  0.8751386404650748  0.3749576286176521
  0.4999881188675108  0.8751266271064616  0.8751266318013170
  0.3124523273130076  0.0624879405281855  0.0624879389171316
  0.3123110166993106  0.0623773397546175  0.5625831995859419
  0.3123110150763813  0.5625831989871473  0.0623773391400556
  0.3127851041142549  0.5620898762466926  0.5620898749600246
  0.8124811791975651  0.0626152261748809  0.0626152267373193
  0.8124996856113329  0.0624404682043837  0.5625791176767513
  0.8124996820310708  0.5625791184136313  0.0624404709604434
  0.8129304091733093  0.5628189073523411  0.5628189095515301
  0.4374208821171370  0.1875003145081474  0.0624404658008247
  0.4371810947732961  0.1870695902349536  0.5628189028372325
  0.4374168014364467  0.6876889831382765  0.0623773411831250
  0.4379101218598050  0.6872148911172190  0.5620898763501508
  0.9373847733036748  0.1875188208859765  0.0626152262356564
  0.9375595317649451  0.1875003156969813  0.5625791177897037
  0.9375120582399465  0.6875476726602630  0.0624879420825545
  0.9376226604893804  0.6876889860804898  0.5625831974583954
  0.4374208828758905  0.0624404669097987  0.1875003124061482
  0.4374168021927642  0.0623773390594360  0.6876889868970024
  0.4371810925912363  0.5628189083167305  0.1870695926617169
  0.4379101218123729  0.5620898729146419  0.6872148919100022
  0.9373847730558110  0.0626152268645211  0.1875188202784030
  0.9375120608796349  0.0624879410348011  0.6875476727587855
  0.9375595291579031  0.5625791189647151  0.1875003179679212
  0.9376226604668653  0.5625831992104848  0.6876889828044809
  0.3123926933283293  0.1874924596446633  0.1874924547558959
  0.3122086644611048  0.1871574818989562  0.6877913331093394
  0.3122086641734459  0.6877913372095398  0.1871574821237687
  0.3126830238908108  0.6873169745785976  0.6873169761780606
  0.8123690272189871  0.1876309732319456  0.1876309724855572
  0.8125075415803852  0.1874924577311949  0.6876073069411501
  0.8125075401131894  0.6876073074746583  0.1874924633226984
  0.8128425208070443  0.6877913362829614  0.6877913392010239
  0.2499732665356887  0.0000156593611393  0.0000156594116115
  0.2499068350350463 -0.0000267487770675  0.5000073344675869
  0.2499068342002319  0.5000073350302515 -0.0000267511858893
  0.2495744300241033  0.4999434766957984  0.4999434686697433
  0.7499437219209628  0.0000820556953199  0.0000820585960569
  0.7500363036291370  0.0000547508686432  0.5000569158692547
  0.7500363017518152  0.5000569157848471  0.0000547516682426
  0.7505225733022988  0.5003153396295090  0.5003153434963774
  0.3749399585785161  0.1248948733079702  0.0000101610266235
  0.3748036708640849  0.1248149066532151  0.5000407636792437
  0.3749646547015038  0.6250353450652149 -0.0000458214767272
  0.3748462567243538  0.6251537404941909  0.4997043046218600
  0.8749289704839333  0.1250710288669252  0.0001055288129803
  0.8748030507189711  0.1251969500234683  0.5001714854168934
  0.8751051249567363  0.6250600412286884  0.0000101657196290
  0.8751850921224034  0.6251963303606325  0.5000407695347279
  0.3749399585907888  0.0000101624972322  0.1248948714949790
  0.3749646549132833 -0.0000458214230563  0.6250353472689728
  0.3748036718918417  0.5000407685116575  0.1248149062315002
  0.3748462613636947  0.4997043030220586  0.6251537326645941
  0.8749289690179776  0.0001055287725853  0.1250710307081855
  0.8751051276214952  0.0000101640517697  0.6250600425886847
  0.8748030482609950  0.5001714864328841  0.1251969516740080
  0.8751850925265524  0.5000407663770103  0.6251963300242203
  0.2498578669427960  0.1250027463000185  0.1250027439766818
  0.2498081834256056  0.1247887079292576  0.6250937026834122
  0.2498081840256985  0.6250937074805776  0.1247887064809581
  0.2502876485337170  0.6248048291190609  0.6248048276557304
  0.7498894112839150  0.1251408203550994  0.1251408206668633
  0.7501649208750814  0.1248471451034655  0.6251615884866153
  0.7501649181925123  0.6251615894308669  0.1248471512736696
  0.7503835521959731  0.6253378944713379  0.6253379038016484
  0.3124078874638480  0.0624208912076457  0.3124447589064681
  0.3124013263483776  0.0623557995657720  0.8125819231985342
  0.3108005277500933  0.5628840632260312  0.3109353807623516
  0.3126170470171880  0.5623922893137563  0.8123875297885130
  0.8123761845668773  0.0626587007400067  0.3125832552526898
  0.8124978506955750  0.0625445090608110  0.8126291449649002
  0.8127827063241164  0.5627533283524880  0.3124727558649194
  0.8131270727241949  0.5626539295044500  0.8131544040501112
  0.4372466764327555  0.1872172908305411  0.3124727414107067
  0.4373460707745604  0.1868729265188901  0.8131544015470339
  0.4371159392445133  0.6891994694055099  0.3109353914113576
  0.4376077081679177  0.6873829499546497  0.8123875341387485
  0.9373412985001214  0.1876238170522509  0.3125832552139909
  0.9374554911299390  0.1875021499801310  0.8126291433751121
  0.9375791070103912  0.6875921177426130  0.3124447649785095
  0.9376442007156685  0.6875986732951079  0.8125819236578644
  0.4374025572029833  0.0624258711669337  0.4375899925465719
  0.4374259935589017  0.0622922561601000  0.9376653725140761
  0.4340429387582051  0.5659570576397430  0.4309667592032891
  0.4374821375902116  0.5625178602130588  0.9374542899374299
  0.9372938484199334  0.0627061530652723  0.4374673419924997
  0.9374640391321037  0.0625359602918357  0.9375286636885890
  0.9375741277796857  0.5625974489897494  0.4375899918986625
  0.9377077403632539  0.5625740075274280  0.9376653719211703
  0.3121113690110666  0.1871874335068933  0.4376086096284557
  0.3124112640772811  0.1874630509837322  0.9376271299271421
  0.3123033438381203  0.6876966549297623  0.4371957530442271
  0.3124926934997914  0.6875073050692312  0.9374122552566005
  0.8122719422162725  0.1877280572096408  0.4373964709823956
  0.8124658867644661  0.1875341135367504  0.9375794328440864
  0.8128125658729829  0.6878886389770742  0.4376086237012210
  0.8125369477263545  0.6875887347602028  0.9376271338670366
  0.2499142204066389  0.0000209344949183  0.2499567589724497
  0.2499544341660144  0.9999426760082178  0.7500455653476694
  0.2488969150571697  0.4999591819180640  0.2490095461252221
  0.2498423314130553  0.4999412035583710  0.7501576645888149
  0.7499489459417638  0.0002082988176849  0.2500510556325236
  0.7500432401083804  0.0000209348370888  0.7500857819510842
  0.7499202022951028  0.5006940901256540  0.2500798031414638
  0.7509904488418487  0.4999591775118309  0.7511030883883295
  0.3748384108910355  0.1248471450060236  0.2498350741019564
  0.3749062933422448  0.1247887068692686  0.7501918150205755
  0.3746621049114871  0.6253378985315644  0.2496164523230811
  0.3751951717620257  0.6248048266536963  0.7497123495377794
  0.8748591795018535  0.1251408208656911  0.2501105887024753
  0.8749972543145071  0.1250027455240419  0.7501421331355057
  0.8751528532866760  0.6251615904846524  0.2498350853107375
  0.8752112948010946  0.6250937050621268  0.7501918182802921
  0.3749054702599082 -0.0000253855616957  0.3749513580703517
  0.3749999538040656  0.9999078435985007  0.8750162990275070
  0.3724559472258417  0.5001256447652719  0.3729013512730034
  0.3749411372293104  0.4999867038093379  0.8750947255224304
  0.8749072610846588  0.0001782548066982  0.3750588795999228
  0.8750092391030911  0.0000390974284061  0.8750811407421537
  0.8751432524705742  0.5001581870879088  0.3750442348452427
  0.8753096110210503  0.4999708240313486  0.8753848352265333
  0.2498056073034241  0.1248407046671752  0.3749469567546319
  0.2499559960214626  0.1249384776618700  0.8750633581707763
  0.2496127530488133  0.6252228761247752  0.3748202375181804
  0.2500771296606230  0.6249448521099432  0.8749035563767935
  0.7497644052496103  0.1251304885253012  0.3751838523276861
  0.7500136689266238  0.1250492366075164  0.8751188538415121
  0.7504467502558245  0.6254454547031921  0.3747832210926583
  0.7501076292008467  0.6251135821638639  0.8752084982511561
  0.3124078852862303  0.3124447631058268  0.0624208883903761
  0.3108005295962048  0.3109353829938484  0.5628840513635639
  0.3124013270233127  0.8125819223695698  0.0623558012290905
  0.3126170478227770  0.8123875322120936  0.5623922929544247
  0.8123761839658062  0.3125832563785598  0.0626587005672121
  0.8127827077812507  0.3124727479217521  0.5627533265818372
  0.8124978484788282  0.8126291429020615  0.0625445112520439
  0.8131270769539776  0.8131544067523228  0.5626539364601038
  0.4374025551799476  0.4375899923283388  0.0624258713720569
  0.4340429352874070  0.4309667523142582  0.5659570511015769
  0.4374259939974855  0.9376653692819291  0.0622922595933557
  0.4374821382648454  0.9374542897030523  0.5625178640942412
  0.9372938464912903  0.4374673432454389  0.0627061525455736
  0.9375741285684589  0.4375899939449986  0.5625974441088053
  0.9374640380168850  0.9375286637091210  0.0625359620675628
  0.9377077446282155  0.9376653743092405  0.5625740084614166
  0.4372466751061526  0.3124727487730602  0.1872172865561181
  0.4371159385720932  0.3109353827366248  0.6891994641425944
  0.4373460715684291  0.8131544004893316  0.1868729320746899
  0.4376077095429567  0.8123875309134682  0.6873829555062640
  0.9373412975456331  0.3125832572687047  0.1876238154044930
  0.9375791079221638  0.3124447623475854  0.6875921148740379
  0.9374554893224208  0.8126291452376840  0.1875021512881888
  0.9376442017447179  0.8125819236486026  0.6875986754970385
  0.3121113653389904  0.4376086178309574  0.1871874306179934
  0.3123033468059074  0.4371957516542823  0.6876966482155783
  0.3124112645642445  0.9376271317265908  0.1874630495114401
  0.3124926944919638  0.9374122547170283  0.6875073079883028
  0.8122719403916668  0.4373964737855174  0.1877280622557884
  0.8128125645873949  0.4376086159580451  0.6878886344722785
  0.8124658855468437  0.9375794323159307  0.1875341153373040
  0.8125369504044376  0.9376271329504122  0.6875887375343491
  0.2499142196384673  0.2499567618549998  0.0000209324381564
  0.2488969158202346  0.2490095510085251  0.4999591665132086
  0.2499544351804351  0.7500455651602075  0.9999426764649075
  0.2498423302216748  0.7501576709105363  0.4999412050160880
  0.7499489466872596  0.2500510530989652  0.0002082997241301
  0.7499202050498625  0.2500797954544912  0.5006940862434762
  0.7500432374067536  0.7500857783864929  0.0000209380085016
  0.7509904519892946  0.7511030876871352  0.4999591934552778
  0.3749054693174587  0.3749513606159405 -0.0000253873119833
  0.3724559453695739  0.3729013559994236  0.5001256276351217
  0.3749999540644300  0.8750162975367706  0.9999078452896449
  0.3749411374426564  0.8750947275780009  0.4999867066107838
  0.8749072608895129  0.3750588790146422  0.0001782533653262
  0.8751432529453345  0.3750442315855751  0.5001581873160168
  0.8750092381202526  0.8750811387977152  0.0000391005246653
  0.8753096136994013  0.8753848371095370  0.4999708291204781
  0.3748384107441300  0.2498350803510681  0.1248471407283539
  0.3746621032251563  0.2496164503960726  0.6253378880811038
  0.3749062952026959  0.7501918165244724  0.1247887083171747
  0.3751951719698045  0.7497123492305631  0.6248048296448515
  0.8748591791206707  0.2501105898320712  0.1251408197398710
  0.8751528547721120  0.2498350794773412  0.6251615895136506
  0.8749972521351194  0.7501421327561701  0.1250027490486118
  0.8752112962201613  0.7501918164900000  0.6250937098471318
  0.2498056060926070  0.3749469621439817  0.1248407021376499
  0.2496127557305420  0.3748202403154066  0.6252228655269707
  0.2499559963344732  0.8750633588794792  0.1249384774860714
  0.2500771298824430  0.8749035572767389  0.6249448544288030
  0.7497644069367205  0.3751838558424033  0.1251304888932423
  0.7504467491483087  0.3747832106492110  0.6254454513232423
  0.7500136673872428  0.8751188516310655  0.1250492403024368
  0.7501076303645619  0.8752084986069057  0.6251135871347052
  0.3122616745907383  0.3124766013504192  0.3124765940914253
  0.3122622438454163  0.3123465900517394  0.8127831088336235
  0.3122622423043157  0.8127831129555176  0.3123465904228767
  0.3125447205623475  0.8124366725966466  0.8124366746513227
  0.8122656850200628  0.3126988136905925  0.3126988129935222
  0.8125357470054650  0.3124976919792252  0.8126024071095318
  0.8125357470758745  0.8126024083752761  0.3124976955868368
  0.8125914113612173  0.8126041741212723  0.8126041766312939
  0.4365062049589236  0.4381947451187870  0.3115010881668963
  0.4374375493373469  0.4373850586427551  0.8127257759412863
  0.4374212710266285  0.9375661515858081  0.3124321312857624
  0.4375240474883348  0.9374002802174406  0.8124615140954020
  0.9375533902764350  0.4375625969838609  0.3125469417551328
  0.9375607094179148  0.4375214158894494  0.8126387792734037
  0.9374406919859977  0.9376155161755806  0.3125390902735179
  0.9375229530910779  0.9375183864958205  0.8125627140460223
  0.4365062080534454  0.3115010924102065  0.4381947357197281
  0.4374212701049427  0.3124321313326286  0.9375661515717378
  0.4374375510875183  0.8127257758261580  0.4373850660898393
  0.4375240466580733  0.8124615096397069  0.9374002839689302
  0.9375533912914599  0.3125469401122866  0.4375625969768098
  0.9374406923830848  0.3125390899364642  0.9376155135198523
  0.9375607104357311  0.8126387837318214  0.4375214179110400
  0.9375229523786559  0.8125627134517145  0.9375183874861526
  0.3119476273082975  0.4374397410479340  0.4374397305564539
  0.3123832576917266  0.4374824806010057  0.9375191241585423
  0.3123832591662936  0.9375191263245761  0.4374824809855155
  0.3125010260895719  0.9374884349801559  0.9374884361831519
  0.8128262032716865  0.4377900986219525  0.4377901002104472
  0.8125128146195950  0.4375037945345042  0.9376272351161031
  0.8125128173692053  0.9376272352519653  0.4375037967534343
  0.8125122415891624  0.9375574551495393  0.9375574573287314
  0.2498273034668118  0.2499118313223876  0.2499118258910027
  0.2498880039531193  0.2499335322981195  0.7501119943476448
  0.2498880026724536  0.7501119986112039  0.2499335316134102
  0.2500394748875207  0.7499605250184107  0.7499605254321190
  0.7496521099765088  0.2503478919911524  0.2503478900988630
  0.7500881696814365  0.2499118292213414  0.7501726965445148
  0.7500881680339528  0.7501726967345926  0.2499118355571374