SiVH3                                   
   1.00000000000000     
    21.8654462440000010    0.0000000000000000    0.0000000000000000
     0.0000000000000000   21.8654462440000010    0.0000000000000000
     0.0000000000000000    0.0000000000000000   21.8654462440000010
   Si   H 
   511     3
Direct
  0.0624310681290930  0.0624526551060052  0.0624463369411893
  0.1874473718986678  0.1874660200635205  0.0625041790311799
  0.1874464954035587  0.0625062770717475  0.1874585980747601
  0.0624895471391300  0.1874652884875193  0.1874587126975608
 -0.0000218830732588 -0.0000682712376464 -0.0000140503328473
  0.1249930977729479  0.1249383636058887  0.0000146151687290
  0.1249910300568972 -0.0000468326861873  0.1249964506810884
  0.0000069380326675  0.1249374112116120  0.1249978408390160
  0.0624687472143049  0.0624881813815305  0.3124442517716947
  0.1875027162202399  0.1875129200584954  0.3125082607922495
  0.1874615304316675  0.0624730476791787  0.4374928376781860
  0.0624641880629089  0.1874706916818867  0.4374892838996156
 -0.0000037048837388 -0.0000582165788594  0.2499954919451058
  0.1250415298408799  0.1249831335402536  0.2500277891620005
  0.1249951533310382 -0.0000098375112867  0.3750072640570400
  0.0000451443646369  0.1249367375069327  0.3750074711461898
  0.0624598461387280  0.0624749782434711  0.5625210414358504
  0.1872132324261691  0.1872261727108362  0.5625904147040780
  0.1874150244965954  0.0623943962384054  0.6875473747354697
  0.0623809934119963  0.1874297735811692  0.6875429892896937
  0.0000992571330947  0.0000378053317140  0.5000480638187237
  0.1249138248309103  0.1248536828904231  0.5000362377305233
  0.1249890807659473 -0.0000939227577660  0.6250575337207066
 -0.0000404187686978  0.1249356681745031  0.6250541004057218
  0.0623974609572363  0.0624169447746217  0.8124644656030757
  0.1874207971200133  0.1874364788415611  0.8125062822859247
  0.1874291092920425  0.0624528106940247  0.9374630748719871
  0.0624320792341842  0.1874499495079971  0.9374623577314062
 -0.0000560156923293 -0.0001019841785064  0.7500032926611707
  0.1249626823841150  0.1249081715132318  0.7500513486096479
  0.1249687215332132 -0.0000766198997151  0.8750051089030321
 -0.0000279029263859  0.1249208755288356  0.8750028771770694
  0.0624712375232025  0.3124605784977888  0.0624879733303706
  0.1874635473408641  0.4375053275483861  0.0624811309104909
  0.1875056123167313  0.3125152406738319  0.1875146105163183
  0.0624709260982346  0.4375030207554367  0.1874728611128278
 -0.0000019575321330  0.2499457579849845  0.0000053957314029
  0.1249969194428045  0.3749570136910013  0.0000566176968357
  0.1250415262781949  0.2499707967537800  0.1250457940171114
  0.0000468922509297  0.3749560198311600  0.1250039158107547
  0.0624609281428055  0.3124952754808940  0.3124895057659445
  0.1874836831228495  0.4375167947982335  0.3124777210637776
  0.1874792351018972  0.3124720339309703  0.4375191784831567
  0.0624358937422731  0.4374833948011391  0.4374802350889636
  0.0000702178773486  0.2499429065295304  0.2500024060009352
  0.1250132592069731  0.3749893699742091  0.2500502750652970
  0.1250117782741636  0.2499874081697404  0.3750468780361318
 -0.0000339766163196  0.3749555599024229  0.3750178452712273
  0.0624137017489191  0.3124663892504856  0.5624878737337030
  0.1874433619754555  0.4374811076785338  0.5625329929021128
  0.1873430618819394  0.3124177696387824  0.6875300195063635
  0.0623961251101317  0.4374965146941591  0.6874854346852027
 -0.0000254577115605  0.2499268916273077  0.5000240708338923
  0.1249941153296562  0.3749597436805134  0.5000484435099359
  0.1248866183531211  0.2498930413284061  0.6250809087427818
 -0.0000602500024995  0.3749706667975787  0.6250037311104589
  0.0624132551893480  0.3124614007341509  0.8125219671005570
  0.1869960806132963  0.4374759776154561  0.8129619505891152
  0.1874269964433441  0.3124436215205343  0.9375547506267231
  0.0623495194445154  0.4374823532764409  0.9376307918171988
 -0.0000284831778615  0.2499447474896596  0.7500591522935127
  0.1249175197545936  0.3749633468839001  0.7500867905643249
  0.1249960734013227  0.2499410020508692  0.8750414628498827
 -0.0000056997812495  0.3749775962536324  0.8750514060638669
  0.0624651502859872  0.5625392447166977  0.0624813952117546
  0.1874163154337089  0.6875570182400985  0.0624010929946352
  0.1872179977180485  0.5625908282857437  0.1872298590217000
  0.0623879350106008  0.6875533633444572  0.1874316306263137
  0.0000979889499864  0.5000067906791542  0.0001080819428386
  0.1249839920022366  0.6250087109150910 -0.0000292045841367
  0.1249097968793941  0.4999832326122018  0.1249127124607006
 -0.0000384199575404  0.6250053127679527  0.1249951027393577
  0.0624211157736919  0.5624946663946121  0.3124624889566348
  0.1873512031732228  0.6875236153298208  0.3124212009076887
  0.1874479040291179  0.5625247664236620  0.4374841352603533
  0.0624011238726125  0.6874850671533614  0.4374862228266825
 -0.0000231578335477  0.4999663384612068  0.2499881610099068
  0.1248886025689255  0.6250201152292933  0.2499502427561566
  0.1249959430610100  0.4999842908491180  0.3750205132175347
 -0.0000591331602522  0.6249388642942526  0.3750239263191457
  0.0624169404291358  0.5624846234469206  0.5624820010419184
  0.1874226047527916  0.6875362082881816  0.5625583611295411
  0.1874190027106364  0.5625592689349264  0.6875458568595821
  0.0623688060247405  0.6875033738265028  0.6874992340798984
 -0.0000629355072463  0.4999531760987777  0.5000145554586236
  0.1249936518371154  0.6249992995747116  0.5000462307814613
  0.1249918950601075  0.4999877337842232  0.6250684873126039
 -0.0000802675109215  0.6249607362010760  0.6250192279553659
  0.0623713586340417  0.5625110858793982  0.8124809381452300
  0.1875100000562205  0.6874991728434559  0.8124489740068879
  0.1874660446654176  0.5625496804961244  0.9374463915465810
  0.0624383704548276  0.6875108794287211  0.9374229318597378
 -0.0000835175551131  0.4999906954621886  0.7499987540345390
  0.1249460871914634  0.6250069330540210  0.7500320071217255
  0.1247123167068850  0.5000205972850382  0.8752775999791992
 -0.0000544705878770  0.6250092369608355  0.8749947302232975
  0.0624006411171345  0.8124733211815293  0.0624175566180598
  0.1874290485103240  0.9374671227279948  0.0624490551812942
  0.1874231521637477  0.8125063935855491  0.1874357894694395
  0.0624323185955842  0.9374659937602048  0.1874411287175189
 -0.0000542708457678  0.7499570404942932 -0.0000438498016420
  0.1249660482635126  0.8749476151182712 -0.0000180819992479
  0.1249604296408633  0.7499936668819345  0.1249677571221046
 -0.0000290318507183  0.8749452748316673  0.1249741901239316
  0.0624166140499408  0.8125237650923931  0.3124496261813772
  0.1874275129707772  0.9375500689363614  0.3124326377437818
  0.1870046788102522  0.8129467903842131  0.4374668947440910
  0.0623521904755102  0.9376217474471401  0.4374640847725630
 -0.0000284070810581  0.7499979375039139  0.2499981886124095
  0.1249939603151970  0.8749766734905807  0.2499946335002023
  0.1249187395842930  0.7500188822108059  0.3750154002333578
 -0.0000067325818468  0.8749840863652314  0.3750222630557360
  0.0623726095285555  0.8124737758206434  0.5624961238783651
  0.1874683960489275  0.9374341520291821  0.5625335135038202
  0.1875113369461690  0.8124440096043544  0.6874910760484695
  0.0624358898465274  0.9374170099125264  0.6874962630961098
 -0.0000841068500713  0.7499285808845739  0.5000392367077845
  0.1247183788285014  0.8752039395574561  0.5000689089181987
  0.1249478929206772  0.7499661381155782  0.6250615160021795
 -0.0000546848799515  0.8749307669263899  0.6250508227553735
  0.0624582524604567  0.8124670825545948  0.8124658350511934
  0.1874429446665302  0.9374452914176908  0.8124890296350806
  0.1874431235323929  0.8124955291303829  0.9374457595282247
  0.0624201921311686  0.9374570018614025  0.9374526478927175
 -0.0000440640462718  0.7499797105085138  0.7500339256855557
  0.1250247033868092  0.8749200489580915  0.7500122355765594
  0.1250225426214192  0.7499582800515933  0.8749813068374788
 -0.0000211150318658  0.8749380094182002  0.8749898002299421
  0.3124368305936664  0.0624887058970802  0.0624848038460261
  0.4374844388519791  0.1874758002828799  0.0624733138734384
  0.4374850899066152  0.0624733576766814  0.1874762079382276
  0.3125006645009670  0.1875153858416059  0.1875145111793762
  0.2499938456720716 -0.0000564978176392  0.0000048844120540
  0.3750108221649748  0.1249367989357855  0.0000511624844696
  0.3750090799402468 -0.0000116522477987  0.1250016951654235
  0.2500274715177206  0.1249839181938393  0.1250464710650659
  0.3124831941675817  0.0624672683140934  0.3124953726484840
  0.4375100705786067  0.1874882852293488  0.3124825116695194
  0.4374773987479493  0.0624421092632496  0.4374955953546260
  0.3124659415992167  0.1874865691108851  0.4375239792934853
  0.2500022097462122  0.0000118138150284  0.2500043027696095
  0.3750506446220998  0.1249539421113381  0.2500555088773131
  0.3750242052943289 -0.0001014884361356  0.3750322076164232
  0.2500501026850430  0.1249535047179411  0.3750519545475726
  0.3124533082778753  0.0624276346440047  0.5624982484085747
  0.4374736392601341  0.1874570706526453  0.5625409163691258
  0.4374791504884101  0.0624102284272484  0.6874916734017796
  0.3124036317135827  0.1873572449283828  0.6875335489403052
  0.2499931820926736 -0.0000887948693156  0.5000328850295850
  0.3750210176071983  0.1249369558046006  0.5000574711403540
  0.3750250276291677 -0.0001242011419003  0.6250129297033489
  0.2499465417739724  0.1248328146660781  0.6250843195439895
  0.3124421342916935  0.0624297928581061  0.8125236005926963
  0.4374568363517874  0.1870126434961208  0.8129598324019460
  0.4374570791241584  0.0623618384661406  0.9376235185313160
  0.3124237990349140  0.1874457904205990  0.9375517647235130
  0.2499973898653653 -0.0000869740596873  0.7500635181102510
  0.3750163980211701  0.1248577718031654  0.7500856585851811
  0.3750238103950518 -0.0000678802602695  0.8750482454790551
  0.2499965475377096  0.1249374726407123  0.8750406138413191
  0.3124837642708659  0.3125006485067099  0.0624697394319086
  0.4374727437542637  0.4374934702283342  0.0624469159967342
  0.4375103289909086  0.3124764533532357  0.1874921588505206
  0.3124683851958004  0.4375199364714565  0.1874953086178843
  0.2500023573508157  0.2499447549260959  0.0000762025122725
  0.3750205270309874  0.3749663092712660 -0.0000333034624527
  0.3750490655537612  0.2499914729195568  0.1250138008311125
  0.2500503355443310  0.3749919606548374  0.1250152525836819
  0.3123963091200474  0.3124192621924944  0.8126026023982619
  0.4375700488581930  0.4376098128182069  0.8123128116630720
  0.4375023846822195  0.3124917649227620  0.9374269289596268
  0.3124645649522802  0.4375283531029575  0.9374362591851483
  0.2499656884412075  0.2499103113313753  0.7500592228985224
  0.3749243201047778  0.3748649385925342  0.7502202969800998
  0.3749781786478242  0.2498675078677448  0.8751223011206577
  0.2499235635877714  0.3749227795414434  0.8751279578421324
  0.3124503119903778  0.5625011113645701  0.0624349403889819
  0.4374753285823248  0.6874890226871790  0.0624144572790659
  0.4374708054490767  0.5625300126563356  0.1874648507497490
  0.3124062121004854  0.6875271225986953  0.1873622398912631
  0.2499865606551178  0.4999730555594091 -0.0000200805336552
  0.3750177598247266  0.6249472339188451 -0.0000541411020479
  0.3750180395612480  0.4999911456474423  0.1250008822064141
  0.2499426012248231  0.6250241889387189  0.1248934258595964
  0.3126625819795534  0.5626703447822891  0.8123506218915262
  0.4375310756337278  0.6876457570940647  0.8123659744940434
  0.4374927408369007  0.5625133683452425  0.9373457001721542
  0.3124720231172369  0.6875583720312533  0.9374736390199572
  0.2493120882630597  0.5000478458713639  0.7508266766646953
  0.3755615396379442  0.6248196133076838  0.7496747476573515
  0.3750265029977168  0.4999395135154340  0.8749120105029974
  0.2501159531509973  0.6249790406274406  0.8749704137394643
  0.3124393702900598  0.8125265771574531  0.0624308155412952
  0.4374567248128583  0.9376237423144260  0.0623635110630611
  0.4374552742973810  0.8129515351898118  0.1870146504614934
  0.3124232523874510  0.9375486386666206  0.1874429011318839
  0.2499913791989330  0.7500035510277387 -0.0000207083528756
  0.3750206035313412  0.8749859702273339 -0.0000013606868804
  0.3750119486455198  0.7500202093739815  0.1249236933369251
  0.2499928188271800  0.8749769200429830  0.1250000820175347
  0.3123985262960683  0.8125927067877823  0.3124167458266695
  0.4375048855613616  0.9374189214098613  0.3124898623145495
  0.4375778961184211  0.8122973615660454  0.4376059571760278
  0.3124689621983114  0.9374225828201486  0.4375206951016646
  0.2499662664305846  0.7499912757664952  0.2499723574392019
  0.3749780952099915  0.8750522344214244  0.2499348551464686
  0.3749251874512206  0.7501407601619408  0.3749379362145712
  0.2499261543540056  0.8750561265037473  0.3749820950872039
  0.3126708270620834  0.8123342990927123  0.5626603229450226
  0.4374987026432802  0.9373403405771824  0.5625110667892925
  0.4375390014725591  0.8123609983027982  0.6876351801279184
  0.3124778923225688  0.9374672610731096  0.6875500385034544
  0.2493207028838004  0.7507456368201283  0.5001093980557993
  0.3750390801494847  0.8748318984805634  0.5000118866168934
  0.3755710581198092  0.7495796834329373  0.6248998016843207
  0.2501265877328022  0.8748967878727451  0.6250393889800899
  0.3124933770471925  0.8124576457195064  0.8124561969018671
  0.4374684231226057  0.9374594731827756  0.8125319493328883
  0.4374651102871362  0.8125357077984444  0.9374608590989705
  0.3124454065781767  0.9374605718630767  0.9374566149402939
  0.2501361924536322  0.7498653212455213  0.7499336065257858
  0.3750921699638537  0.8749094621089035  0.7500082392496185
  0.3750858378318219  0.7499410167685645  0.8749856947768553
  0.2500156453381551  0.8749232697841373  0.8749847629536737
  0.5625137453608540  0.0624758703444232  0.0624741053982741
  0.6875297360572351  0.1874347283908150  0.0623941594366916
  0.6875320763951965  0.0623932193854679  0.1874325051809662
  0.5625796105030245  0.1872314729580267  0.1872319260757782
  0.5000506956798979  0.0000394398633418  0.0001036651289937
  0.6250535871969480  0.1249384707886277 -0.0000380298983258
  0.6250544675854487 -0.0000991291828885  0.1249988456370007
  0.5000386270426987  0.1248577824709472  0.1249204014440946
  0.5624824061422349  0.0624254497898185  0.3124742011711747
  0.6875157725472081  0.1873615186760441  0.3124231277351515
  0.6874749674196923  0.0624095537312025  0.4374967018072730
  0.5625236634515809  0.1874581466937954  0.4374940482686075
  0.5000291667902362 -0.0000927744292843  0.2500041021868437
  0.6250782175773428  0.1248323670930342  0.2499589380264816
  0.6250023927102245 -0.0001298537377534  0.3750406344582882
  0.5000488746409051  0.1249377289200330  0.3750329796940242
  0.5624736472558325  0.0624287767115193  0.5624922094104277
  0.6875345376340743  0.1874345940777026  0.5625596879778854
  0.6874865277095834  0.0623786491186582  0.6874976352992426
  0.5625474721375221  0.1874330812378073  0.6875459854661995
  0.5000176945298868 -0.0001345417008817  0.5000315868580729
  0.6250625690450283  0.1249293311342322  0.5000538980246531
  0.6250128324886266 -0.0001499854622485  0.6250228384807117
  0.5000433227535789  0.1249297257211150  0.6250709836489086
  0.5624849787904594  0.0623828688884286  0.8124744194437168
  0.6874708793572787  0.1875377379121443  0.8124295555837597
  0.6874797475518742  0.0624527797483751  0.9374094975362118
  0.5625200375033979  0.1874915616625688  0.9374272754229130
  0.5000377182356478 -0.0001520507917472  0.7499966806280187
  0.6250549100181182  0.1248825295167815  0.7500244502731127
  0.6250469907939178 -0.0001136488920226  0.8749858807288134
  0.5000686307303814  0.1246523599147590  0.8752688476213759
  0.5624782721342230  0.3124756596888334  0.0624260316242912
  0.6874717540328155  0.4375035193605589  0.0624103545327009
  0.6875126371121792  0.3124246336644220  0.1873645541150345
  0.5625202674371282  0.4374879245294706  0.1874632638939308
  0.5000269491233444  0.2499376821871065 -0.0000271683008285
  0.6250011944371863  0.3749808662972500 -0.0000603831619819
  0.6250772972492229  0.2498999450442367  0.1248945598617246
  0.5000467968358020  0.3749693248618137  0.1250007186656584
  0.5626393290371766  0.3127085162627970  0.8123255222608498
  0.6876111959879256  0.4375809216878222  0.8123474551695236
  0.6875284062737029  0.3125073455506322  0.9374589019222855
  0.5624830543418361  0.4375305989786208  0.9373368482601319
  0.5001077774612107  0.2492479481190314  0.7508242059644884
  0.6248812421128892  0.3755286596083804  0.7496434114239874
  0.6250291068132254  0.2500802214838495  0.8749511050760471
  0.4999951583844185  0.3749821497365195  0.8749027611737386
  0.5624700557122119  0.5624909078770988  0.0624315805070548
  0.6874870036440698  0.6875020126607635  0.0623805180725694
  0.6875311165451693  0.5625587447572159  0.1874390774299490
  0.5625461470436888  0.6875338656652775  0.1874391295820225
  0.5000128862684846  0.4999650911164781 -0.0000637554240457
  0.6250136923536120  0.6249649292667876 -0.0000792715989735
  0.6250625778116595  0.4999926627516770  0.1249994922077726
  0.5000407521683330  0.6250025623139855  0.1250000813163407
  0.5624291243200905  0.5624791873663398  0.8120181609870843
  0.6871767133938567  0.6871979519128566  0.8121247766122462
  0.6874042279750806  0.5624647422836991  0.9373082670133899
  0.5624311750490111  0.6874280199196541  0.9373087915611155
  0.4999669232383155  0.4999083278312926  0.7495016193459448
  0.6249201296076085  0.6248566239202324  0.7492952394433118
  0.6249422676707921  0.5000240896020867  0.8747549989834268
  0.5000613709670768  0.6248868325151141  0.8747627444002447
  0.5624855610452097  0.8124719839196027  0.0623850121646791
  0.6874830621143809  0.9374110417145336  0.0624513771946017
  0.6874731681470697  0.8124319125030885  0.1875346420150189
  0.5625213884600549  0.9374264850622143  0.1874897370424032
  0.5000347127371728  0.7499313677621485 -0.0000816561249803
  0.6250486135643336  0.8749276736303707 -0.0000517039555857
  0.6250562205703810  0.7499608714839890  0.1249527184817409
  0.5000680408346592  0.8752042315701591  0.1247206062995135
  0.5626406948011240  0.8123216621050958  0.3127030687380001
  0.6875310481156310  0.9374596989437711  0.3125004990188114
  0.6876095510833005  0.8123495656949460  0.4375698541395665
  0.5624879557512864  0.9373349875191188  0.4375259145187391
  0.5001049388901957  0.7507507683253389  0.2493202185422598
  0.6250312893353326  0.8748837696777969  0.2501443575232449
  0.6248846200703667  0.7495611242854240  0.3755987569410075
  0.5000003026950693  0.8748257952593411  0.3750559215532380
  0.5624371984523379  0.8120224700802509  0.5624694638723843
  0.6874034900029049  0.9373087406946060  0.5624538262437820
  0.6871766945942260  0.8121290731746337  0.6871921766707535
  0.5624336809433964  0.9373101109778965  0.6874227498748451
  0.4999783399178510  0.7494054491786242  0.4999980965588537
  0.6249417072007606  0.8746788860045541  0.5000865438272871
  0.6249203812765434  0.7492130318804890  0.6249314194177106
  0.5000669273513630  0.8746851368068307  0.6249556873467806
  0.5623646221987740  0.8127170162368113  0.8127114349835006
  0.6874348845681298  0.9373742431080568  0.8123892606000536
  0.6874377213098738  0.8123913971436257  0.9373744787850187
  0.5624710479002913  0.9376219774148831  0.9376214011688441
  0.5003646460571609  0.7501259102884129  0.7502078227172280
  0.6250309605505823  0.8747897080771408  0.7499444441691372
  0.6250311641535495  0.7498846552003592  0.8748570928721838
  0.5000933348953582  0.8751596356133021  0.8752271726376267
  0.8124472736175976  0.0624142784731683  0.0624115088983496
  0.9374447629070649  0.1874502050403954  0.0624473787980711
  0.9374445345619066  0.0624510014397328  0.1874413739268569
  0.8124879683085451  0.1874381841275156  0.1874348057932519
  0.7499969234117914 -0.0001059937828829 -0.0000501683298795
  0.8749946638881717  0.1249199840141969 -0.0000212184116847
  0.8749946587749859 -0.0000807505714100  0.1249757646325880
  0.7500438959447961  0.1249080582902934  0.1249687670953515
  0.8125056632131659  0.0624297310224528  0.3124553053703121
  0.9375353084473202  0.1874458849729807  0.3124324614879819
  0.9376110502847594  0.0623609473792085  0.4374644013757594
  0.8129473868573823  0.1870121396631697  0.4374682290421691
  0.7500542053577466 -0.0000919814692152  0.2500080207704251
  0.8750319595338591  0.1249370351835810  0.2499991093343614
  0.8750399733302144 -0.0000691239969769  0.3750271686072542
  0.7500772955199401  0.1248581308542173  0.3750239320005151
  0.8124624007154793  0.0623835038095749  0.5624955065218227
  0.9374212584084082  0.1874851366053168  0.5625274564839512
  0.9373991357872413  0.0624542236591691  0.6874909637353607
  0.8124228066878706  0.1875355682645744  0.6874791232602971
  0.7499884776338526 -0.0001540406327471  0.5000462234209300
  0.8752660365380804  0.1246509977879258  0.5000686369225901
  0.8749836434738304 -0.0001115005478293  0.6250489572979442
  0.7500211031565449  0.1248828836777144  0.6250576914412835
  0.8124422050767086  0.0624747671899479  0.8124542278946654
  0.9374210441643155  0.1874650556535771  0.8124809339938130
  0.9374326869868566  0.0624395816238721  0.9374478771626710
  0.8124665553816766  0.1874664865379457  0.9374342030007973
  0.7500254712765061 -0.0001059982049769  0.7500286765397043
  0.8749657992177410  0.1249765758236589  0.7500034170794847
  0.8749789100759545 -0.0000674581637459  0.8749852005554748
  0.7499996392192582  0.1249775679850612  0.8749689439725302
  0.8125034384420052  0.3124657870078004  0.0624301916639924
  0.9376115665524022  0.4374832788064037  0.0623675540074849
  0.9375359482826701  0.3124432809215392  0.1874427391960426
  0.8129422710394373  0.4374768135722646  0.1870181833645268
  0.7500534097309146  0.2499508711615540 -0.0000254889995943
  0.8750413868565393  0.3749798922533238  0.0000009426023216
  0.8750322105890030  0.2499423011035944  0.1250013889650538
  0.7500763136551452  0.3749682404116471  0.1249274613854812
  0.8125822494788772  0.3124195145225786  0.3124143099165783
  0.9374277272274498  0.4375192538171040  0.3124736732828021
  0.9374233815144223  0.3124789687084136  0.4375090500102783
  0.8123165057746110  0.4375911122814174  0.4375802789554101
  0.7500507167699723  0.2499113694828304  0.2499734788349298
  0.8751169517332482  0.3749189644876583  0.2499308564650245
  0.8751160440101177  0.2498655155398171  0.3749782271480369
  0.7502096741987819  0.3748623065180128  0.3749347657881015
  0.8123268803168794  0.3126981170260822  0.5626483623079461
  0.9373316350110660  0.4375174342173455  0.5624928997151116
  0.9374523040499737  0.3124992170076037  0.6875398017314007
  0.8123453079065338  0.4375741926139567  0.6876225391126422
  0.7508225842030350  0.2492467385092941  0.5001116067816590
  0.8749146681367928  0.3749649170425137  0.4999929230056904
  0.8749581197629088  0.2500711800531633  0.6250283275478534
  0.7496592266007821  0.3755180855972433  0.6248792297569845
  0.8124294236975617  0.3125292132284918  0.8124387366895175
  0.9374452854810995  0.4374965353291250  0.8125302690393164
  0.9374367388940313  0.3124740670025163  0.9374539768585138
  0.8125156926603569  0.4374996759429053  0.9374552805492611
  0.7499182041564793  0.2500939745004945  0.7499156971500571
  0.8749791349943716  0.3750462353549490  0.7499986128317188
  0.8749725571776336  0.2499761760920440  0.8749771852627082
  0.7499971665852152  0.3750520511615608  0.8749733115281969
  0.8124656118606007  0.5625107692239072  0.0623868441343503
  0.9374069719563587  0.6875081760590025  0.0624570266581954
  0.9374288829530939  0.5625446883293695  0.1874847196389182
  0.8124294688400023  0.6874894993034417  0.1875322837259173
  0.7499925721277292  0.4999949021330349 -0.0000815903098200
  0.8749887486280112  0.6250081112655759 -0.0000467617960911
  0.8752653264379971  0.5000191779014731  0.1247231583160990
  0.7500229235001601  0.6250037975958601  0.1249529217330250
  0.8123336787200444  0.5626594156325412  0.3126889531381128
  0.9374574247355891  0.6875494829888368  0.3124885582220063
  0.9373344987468483  0.5625003286384712  0.4375069614938505
  0.8123489246769507  0.6876309838954144  0.4375569727035394
  0.7508143242999821  0.5000452224994750  0.2493270002765441
  0.8749599941697598  0.6249690396790614  0.2501282637219095
  0.8749163842342761  0.4999258774731997  0.3750269766778597
  0.7496666430006862  0.6248019494302017  0.3755819986044904
  0.8120082118444224  0.5624623548262423  0.5624443996899940
  0.9372974105278753  0.6874209245887536  0.5624445108481226
  0.9372981815827418  0.5624582843144915  0.6874163928406246
  0.8121083548285364  0.6871916273176496  0.6871843659086434
  0.7495186248487398  0.4998838607733058  0.4999633823323624
  0.8747642028804332  0.6248725440320838  0.5000687286010395
  0.8747635452587578  0.5000119808972037  0.6249413949620422
  0.7492927867597052  0.6248444731064805  0.6249160827749319
  0.8127016234094587  0.5623951009610207  0.8127123844468223
  0.9373652403386371  0.6874585635564783  0.8123929525861996
  0.9376148250691838  0.5624987362167448  0.9376290821588795
  0.8123838697215818  0.6874591412764679  0.9373783301793756
  0.7502001996157491  0.5003250875478814  0.7501929354642118
  0.8748584614227650  0.6249837542786910  0.7499455977748400
  0.8752251916292231  0.5000558802303168  0.8752271440509516
  0.7499470231897297  0.6249863927686073  0.8748602853460423
  0.8124489913416774  0.8124617065726583  0.0624747712353435
  0.9374348692335680  0.9374546825172154  0.0624346568265605
  0.9374271030675460  0.8124892609837439  0.1874598610253493
  0.8124698140776883  0.9374383953731467  0.1874602946813068
  0.7500288543326801  0.7499773440592160 -0.0000412096930527
  0.8749800932005832  0.8749347818904135 -0.0000134829819658
  0.8749691061873154  0.7499515035182837  0.1250343271038926
  0.7500023010001281  0.8749107339240145  0.1250361717847782
  0.8124345585961815  0.8124453109287694  0.3125160242069248
  0.9374385411304493  0.9374568660273286  0.3124568664353359
  0.9374469193199423  0.8125307149650293  0.4374783129336239
  0.8125140813250593  0.9374554526078493  0.4374839935856052
  0.7499192931969366  0.7498488764979859  0.2501551679188607
  0.8749731323803817  0.8749146655363540  0.2500257119393689
  0.8749786697791866  0.7499298559388611  0.3750973137139126
  0.7499966093575008  0.8748988538859335  0.3751076662451814
  0.8126926781366457  0.8127099172779563  0.5623805402473450
  0.9376085385256735  0.9376215879631895  0.5624799616555592
  0.9373636191490711  0.8123916224209711  0.6874483522825152
  0.8123797857143622  0.9373756917991638  0.6874468261892847
  0.7501962669362844  0.7501091534195385  0.5003798271833992
  0.8752213087904120  0.8751552930687678  0.5000978272160367
  0.8748557525677035  0.7498805776830009  0.6250343084411559
  0.7499406071783534  0.8747898300485044  0.6250378083696665
  0.8123120560081681  0.8123246805967950  0.8123220990645831
  0.9373925186204265  0.9374103043036435  0.8124493443667796
  0.9373967478417287  0.8124580740352318  0.9374118992672236
  0.8124350028685986  0.9374077268839357  0.9374047947922977
  0.7498455333389608  0.7497850585642585  0.7498453062106699
  0.8749240878209169  0.8748712743548706  0.7499956660799002
  0.8749270132762352  0.7499489466915054  0.8749298349242112
  0.7499917245702176  0.8748695361527695  0.8749251272503360
  0.3125609364773337  0.3125667974220097  0.3125746441751779
  0.4376160630042411  0.4376212367489202  0.3124939714951085
  0.4376187597398811  0.3124781567789446  0.4376393013064022
  0.3124782030904071  0.4376218980208970  0.4376310686966598
  0.2500962540335182  0.2500378167800285  0.2500986495669828
  0.3751177634562273  0.3750573787665237  0.2500895082605321
  0.3751169150034011  0.2500248075073548  0.3751256025280933
  0.2500832688247270  0.3750572523921926  0.3751230200076452
  0.3119338286502391  0.3119423191364429  0.5624918790734997
  0.4335984789022391  0.4335742065139766  0.5675812177049343
  0.4375491894080421  0.3113695382630172  0.6886218155758944
  0.3113634114160918  0.4375644800432642  0.6886076003890925
  0.2496281612564554  0.2495708622469681  0.5001427162773797
  0.3742900075797231  0.3742297824072934  0.5001745123495208
  0.3749754402047538  0.2498380926239360  0.6251854036468576
  0.2498952696809992  0.3749186578324401  0.6251825286148918
  0.3119312402987022  0.5624719471485674  0.3119470062886621
  0.4375464078933278  0.6886016736858140  0.3113789694736716
  0.4335922083991142  0.5675330770851243  0.4335882883716425
  0.3113773027259892  0.6885824149456665  0.4375711580201301
  0.2496220751116411  0.5000793016047806  0.2496264733719598
  0.3749704065984165  0.6251114053396626  0.2499063711983147
  0.3742753705700821  0.5000996776340421  0.3742821268165227
  0.2499006176603529  0.6251080320175525  0.3749818165434748
  0.3126141421397586  0.5624672938657509  0.5624800864677677
  0.4383880460540627  0.6866448683061884  0.5631578888769836
  0.4383768666243590  0.5631697752882184  0.6866681488747179
  0.3127335755730426  0.6874446963860099  0.6874482539262140
  0.2499752510000041  0.5000662058896133  0.5001375658473188
  0.3736936300640315  0.6268530032577918  0.5001257694682542
  0.3736894745120940  0.5000530310648582  0.6269481524828050
  0.2501303781496794  0.6249451968461782  0.6250187453034607
  0.5624735594977306  0.3119455327764170  0.3119574492255314
  0.6885838960126826  0.4375695822763123  0.3113928376121634
  0.6886028062583500  0.3113725643445672  0.4375738358572037
  0.5675603392657400  0.4335683868013663  0.4336223585706001
  0.5001378769546456  0.2495755452064934  0.2496396425454311
  0.6251721149754889  0.3749231430172374  0.2499121025318668