SiVH3                                   
   1.00000000000000     
    21.8654462440000010    0.0000000000000000    0.0000000000000000
     0.0000000000000000   21.8654462440000010    0.0000000000000000
     0.0000000000000000    0.0000000000000000   21.8654462440000010
   Si   H 
   511     3
Direct
  0.0624983021875456  0.0624975681024193  0.0624986961029302
  0.1874810658933182  0.1874759000067251  0.0624982432862572
  0.1874798206006543  0.0624872936447334  0.1874824596676431
  0.0624946910919334  0.1874754478413004  0.1874832679325080
  0.0000001586148007  0.0000013893958415 -0.0000004526735257
  0.1249894894575251  0.1249893817305429 -0.0000144108771821
  0.1249900246768850 -0.0000182565444857  0.1249900559729927
 -0.0000157594261298  0.1249895562681538  0.1249897908178776
  0.0624583081305278  0.0624466996807623  0.3124897004742669
  0.1874444003020914  0.1874282962216632  0.3124546208361949
  0.1874642369350878  0.0624474760315041  0.4374978869233543
  0.0624637439014720  0.1874539335892074  0.4374976510140506
 -0.0000530790431985 -0.0000599643353937  0.2500020913011410
  0.1249404098752745  0.1249352442375412  0.2499665975947643
  0.1249615060686892 -0.0000014699680498  0.3749832538457469
  0.0000163893293667  0.1249503786651711  0.3749845798860535
  0.0624397978489879  0.0624252659393980  0.5625184997437990
  0.1872837944453324  0.1872695659427124  0.5625700550469021
  0.1873948669847547  0.0623738578634289  0.6875575259682061
  0.0623869769287006  0.1873886594385185  0.6875550337569021
  0.0000008033563523 -0.0000230852102857  0.5000039589986905
  0.1248843423387360  0.1248751651431177  0.4999728838788199
  0.1249313104223417 -0.0000675175064409  0.6250087674881147
 -0.0000496396316921  0.1249174615612842  0.6250129830637403
  0.0624814385871067  0.0624789762355527  0.8125114726423419
  0.1874523085149503  0.1874477366904922  0.8125573122229337
  0.1874951931860082  0.0624785044738401  0.9375014492141459
  0.0624828826619441  0.1874955601980219  0.9374998157787071
 -0.0000054820298131 -0.0000148249423701  0.7499833987595425
  0.1249734855903437  0.1249690203587098  0.7500223693856074
  0.1250034567199105 -0.0000137808039705  0.8749901453840699
 -0.0000113567430957  0.1250020715351391  0.8749920043822855
  0.0624647938703990  0.3124896238856666  0.0624699769206214
  0.1874786949546472  0.4374832602233492  0.0624850247324453
  0.1874500255477311  0.3124383349387950  0.1874581763839373
  0.0624763129608084  0.4374832940586337  0.1874833330519223
 -0.0000449497417633  0.2500017033652104 -0.0000414691148149
  0.1249667596276392  0.3749834288898677  0.0000296448648404
  0.1249489238672477  0.2499612614083435  0.1249514100121310
  0.0000207275568046  0.3749827586026938  0.1249711715183774
  0.0624489795230530  0.3124642276113496  0.3124871208355415
  0.1874539964483015  0.4374447703344189  0.3124691062844671
  0.1874366751411418  0.3124165819910858  0.4374859608364992
  0.0624044278557571  0.4374596191334028  0.4374804179389661
  0.0000224505699633  0.2499545882088099  0.2499587712971974
  0.1249591422573492  0.3749307729670907  0.2499624587666333
  0.1249495392873144  0.2499286103769520  0.3749474394864025
 -0.0000534861598982  0.3749692492272227  0.3749780877863560
  0.0623963942071521  0.3124071595782139  0.5625204271264295
  0.1873183132721534  0.4373612802361740  0.5625358201772277
  0.1872899414081250  0.3122908484052949  0.6875640673700099
  0.0624067756310187  0.4374555299906737  0.6875265122435813
 -0.0000459313792750  0.2499382400770338  0.4999863090467749
  0.1248675149025099  0.3748906905284470  0.4999673003284812
  0.1248242735862765  0.2498467213010349  0.6250280151193768
 -0.0000699265415619  0.3749666730826695  0.6249979094608106
  0.0624273430145352  0.3124487892165947  0.8125439608819550
  0.1869118280493971  0.4373816448888613  0.8130677190366423
  0.1874371710443470  0.3124383972159487  0.9375895184180912
  0.0623434743092539  0.4374551154515767  0.9376536129902876
 -0.0000276099288494  0.2499653839555000  0.7500371870133371
  0.1248704347832248  0.3749340192822723  0.7500579736294941
  0.1249731808809279  0.2499921488466869  0.8750170974669473
 -0.0000318149620481  0.3749870566800192  0.8750222588006120
  0.0624508376373771  0.5625112562235746  0.0624582939061989
  0.1874134655902495  0.6875352109598228  0.0624142363279815
  0.1873115418379759  0.5625300025276594  0.1873186864867648
  0.0624084294127023  0.6875361595416519  0.1874176307940078
 -0.0000023996419595  0.4999977842159400  0.0000101282225000
  0.1249355115888405  0.6250072936627289 -0.0000382233123988
  0.1249015609237580  0.4999590190346606  0.1249061453537207
 -0.0000467316480768  0.6250051762034528  0.1249432335289045
  0.0624170636069405  0.5624911309928591  0.3124421674402031
  0.1873266444306310  0.6875124531380269  0.3123439445394537
  0.1873367968981101  0.5624799384273286  0.4374103302608186
  0.0624211055093270  0.6875002052266791  0.4374725967294847
 -0.0000397877694106  0.4999779439410356  0.2499549538784016
  0.1248528728611348  0.6250011973343144  0.2498804813645521
  0.1248845945589253  0.4999331781587679  0.3749245299267161
 -0.0000667115001233  0.6249817334833956  0.3749768466458242
  0.0624396545786489  0.5624796384905643  0.5625021184704643
  0.1873294562387471  0.6875138994319998  0.5625169158164013
  0.1873205566045973  0.5624903595067552  0.6875516623514287
  0.0623911862679249  0.6875051709763087  0.6875152844984211
 -0.0000737965434607  0.4999857707180884  0.4999934796646804
  0.1249073755671981  0.6249907934591282  0.4999674655326407
  0.1248933078832302  0.4999444732274552  0.6250260494223687
 -0.0000852010122106  0.6249848137195165  0.6249942617991811
  0.0624100448767045  0.5625047879612534  0.8125073716518353
  0.1874624924679248  0.6874660925510132  0.8124858014357991
  0.1874501227078259  0.5625147997195205  0.9375198945187705
  0.0624511352932930  0.6875012131960470  0.9374411843130231
 -0.0000832898554856  0.4999917645871736  0.7499977086127000
  0.1248896075159977  0.6250182592229016  0.7500015593495737
  0.1246488514943637  0.5000360794070742  0.8753094797323903
 -0.0000904605080708  0.6250124350229729  0.8749489042004910
  0.0624884641886624  0.8125030747512465  0.0624897359413090
  0.1875015725661072  0.9374872156701722  0.0624926041332715
  0.1874739569911993  0.8125226894970839  0.1874764718186372
  0.0624902113525085  0.9374881791061855  0.1875013424608845
 -0.0000105489685596  0.7499794991169108 -0.0000058372035766
  0.1250041650281336  0.8749866765360108 -0.0000116029106705
  0.1249837834168778  0.7500099302639046  0.1249862464688110
 -0.0000128745614242  0.8749858063929244  0.1250047727551279
  0.0624417977802598  0.8125141675995277  0.3124603464261248
  0.1874467079467317  0.9375516325220201  0.3124515611641211
  0.1869431956485300  0.8130204090591274  0.4374037363651247
  0.0623495102103750  0.9376136716757248  0.4374660268008830
 -0.0000295722189569  0.7500133965232882  0.2499796460594162
  0.1249811312187419  0.8749910507361428  0.2499956272095397
  0.1248940256816854  0.7500266207811419  0.3749503342515223
 -0.0000325282423652  0.8749924809746323  0.3749899801273237
  0.0624178644962679  0.8124859110931704  0.5625052940408242
  0.1874488128532364  0.9374783779848485  0.5625258436099163
  0.1874690116927986  0.8124697629831812  0.6874748220828875
  0.0624450607250304  0.9374208631741291  0.6875042367711112
 -0.0000798569664638  0.7499775781481500  0.4999971487785062
  0.1246670372460440  0.8752686841914598  0.5000391049458861
  0.1248970619620191  0.7499813348082550  0.6250282041592706
 -0.0000895208195155  0.8749254406785818  0.6250126114118895
  0.0625005116687129  0.8124914465592482  0.8124919276282352
  0.1874938035641067  0.9374608807738540  0.8125066201623100
  0.1874993767085446  0.8124949793665787  0.9374760250862264
  0.0625018332689769  0.9375022601085986  0.9375009990991658
 -0.0000624302812420  0.7500059552017259  0.7500065276810017
  0.1250012814176160  0.8749779783882046  0.7499942309781790
  0.1249971408237516  0.7499920396578750  0.8749892375169348
  0.0000013301498772  0.8749902212499956  0.8749911702585306
  0.3124896836320384  0.0624478270984292  0.0624670259864464
  0.4374923768566238  0.1874590067586470  0.0624761949954743
  0.4374936745700352  0.0624522069189264  0.1874739741923323
  0.3124492327714108  0.1874310199696781  0.1874533518856912
  0.2500019677471864 -0.0000577063647138 -0.0000465792893243
  0.3749850696754432  0.1249507970357472  0.0000269315867042
  0.3749825927432399 -0.0000000241753108  0.1249698631004281
  0.2499648456717946  0.1249381832100633  0.1249455693109100
  0.3124728887150458  0.0624296963055260  0.3124806598691006
  0.4374716544116411  0.1874152233021065  0.3124608609272522
  0.4374717343516824  0.0623714919866194  0.4374787574784971
  0.3124421149037551  0.1874081170112857  0.4374866621420530
  0.2499567946830145  0.0000034711167466  0.2499579445213660
  0.3749424299150936  0.1249375359577031  0.2499534880458889
  0.3749726426004987 -0.0000849597976745  0.3749752235210383
  0.2499425127882949  0.1249335675294964  0.3749479549126206
  0.3124167524460884  0.0623741147206832  0.5625220456187541
  0.4373893563466416  0.1872765865291000  0.5625450989422028
  0.4374614950519375  0.0623795506596505  0.6875342114979839
  0.3123080065531247  0.1872732124799437  0.6875670386217976
  0.2499463201824092 -0.0000720297052412  0.4999849946964238
  0.3749082649602845  0.1248408222411639  0.4999717263856531
  0.3749740833761351 -0.0001015110265065  0.6249978509303926
  0.2498560850297612  0.1248125367173685  0.6250331571371628
  0.3124492382530805  0.0624092184895889  0.8125479710023138
  0.4373919289533586  0.1868968302729656  0.8130747610899123
  0.4374590456320332  0.0623258122850038  0.9376498602435134
  0.3124385942227228  0.1874267563476475  0.9375912316178067
  0.2499731847600021 -0.0000476299825031  0.7500308294735321
  0.3749409659679349  0.1248534408170688  0.7500683759540947
  0.3749909169342404 -0.0000525123897711  0.8750204783329504
  0.2499903472317572  0.1249655490155332  0.8750164532370303
  0.3124830648307832  0.3124674560661937  0.0624591832797180
  0.4374743522062170  0.4374604689335871  0.0624206523936146
  0.4374732643997452  0.3124211702797931  0.1874569475245825
  0.3124574629571238  0.4374443310207768  0.1874698780541687
  0.2499579849664557  0.2499552222634481  0.0000319421226751
  0.3749761711224222  0.3749706650713464 -0.0000379866349259
  0.3749423034091894  0.2499333927520490  0.1249606886820803
  0.2499564605725579  0.3749307263526383  0.1249681038519643
  0.3123567963914991  0.3123407832531246  0.8127040394934136
  0.4373909491251689  0.4373668138256734  0.8125691346460512
  0.4374929222116232  0.3124625167169370  0.9375212701644791
  0.3124709849575148  0.4374881992754572  0.9375206111602880
  0.2499284251800659  0.2499136147415529  0.7500562025479299
  0.3747960436976208  0.3747637523538884  0.7502614901700022
  0.3749520983978389  0.2498853206274927  0.8751563322785991
  0.2499000437164460  0.3749453479458534  0.8751509787340628
  0.3124369796220839  0.5624905501909525  0.0624278451392443
  0.4374695356698166  0.6874963319485724  0.0624346626089728
  0.4373958470950464  0.5624757676273784  0.1873579705161033
  0.3123337647872722  0.6875111348596962  0.1873337308740979
  0.2499509882260419  0.4999783552131566 -0.0000268125755263
  0.3749733279143376  0.6249816417439380 -0.0000509540726125
  0.3749158211369646  0.4999310656061827  0.1248978527586879
  0.2498745606697950  0.6249986464330010  0.1248575018475893
  0.3123841589173610  0.5624875245157421  0.8126030126044220
  0.4374277405221496  0.6875457609396873  0.8125742663449793
  0.4374882257495741  0.5624963269394647  0.9374590148847303
  0.3124649374362688  0.6875308846423595  0.9375138886043037
  0.2490546574955222  0.5000285818017466  0.7508798777817515
  0.3749662672686331  0.6250086072255175  0.7500933515923532
  0.3749562765753368  0.4999744286628482  0.8750275357166937
  0.2499665876332150  0.6250328232033865  0.8750494641625899
  0.3124597804506262  0.8125122638004619  0.0624505388301525
  0.4374637195375769  0.9376183422303855  0.0623559310206181
  0.4373980205145549  0.8130209638368638  0.1869464003191456
  0.3124516418197529  0.9375503545081701  0.1874522880752475
  0.2499754416647279  0.7500167649388416 -0.0000197653270560
  0.3749879468770521  0.8749935277760371 -0.0000224011834363
  0.3749465580893130  0.7500217081027839  0.1249018422928680
  0.2499965662490863  0.8749911976022460  0.1249850683406501
  0.3123827867107739  0.8126440379916458  0.3123917488649294
  0.4375009931328161  0.9374673534615650  0.3124800166324285
  0.4373976209160240  0.8125088408882349  0.4374097547083050
  0.3124756851986019  0.9374678559674503  0.4375032644231658
  0.2499473126920756  0.7500108086754470  0.2499549064452541
  0.3749556505245733  0.8751031417690929  0.2499197842805890
  0.3748079338561041  0.7501909615195076  0.3748235707710836
  0.2499119646487079  0.8751062340034131  0.3749589994053000
  0.3124028508945222  0.8125664205414199  0.5625066157335326
  0.4374861570323331  0.9374099570967307  0.5625034335433654
  0.4374327377211891  0.8125480349039642  0.6875639544299581
  0.3124570921574731  0.9374750597479804  0.6875457779860279
  0.2490831616421018  0.7508201809066523  0.5000568276118701
  0.3749636019073352  0.8749805971981426  0.4999909548693925
  0.3749725047936958  0.7500540869986472  0.6250392069995061
  0.2499736018170156  0.8750147445223183  0.6250390012607124
  0.3124847308094318  0.8124425248282081  0.8124547582295485
  0.4374693692869391  0.9374621373693394  0.8125219685442813
  0.4374749511638205  0.8125023445340976  0.9374923939554110
  0.3124823280670915  0.9374261452009495  0.9374494959197820
  0.2499710690612569  0.7499359803709135  0.7499520328571037
  0.3749636047556557  0.8750072428541467  0.7500288622966820
  0.3749620205523954  0.7500154044153813  0.8750332367293774
  0.2499955167570601  0.8749373837462728  0.8749507330772132
  0.5625158752845090  0.0624309431936579  0.0624512792274245
  0.6875469873416090  0.1873966835208520  0.0624013522064938
  0.6875515474047957  0.0623803036435440  0.1874026304795905
  0.5625564798111210  0.1872814206898846  0.1873023929229113
  0.5000020095569342 -0.0000181363093820  0.0000076255839753
  0.6250120033939770  0.1249205238734562 -0.0000396764015485
  0.6250064889294742 -0.0000665205802058  0.1249382163786558
  0.4999684647965976  0.1248829187478299  0.1248959569270442
  0.5625128975184611  0.0623804420652949  0.3124273114651790
  0.6875500703719413  0.1872830830578937  0.3123229104283504
  0.6875250079616448  0.0623845541059987  0.4374671492694160
  0.5625270833121200  0.1872836290306565  0.4374052579267255
  0.4999818207453270 -0.0000699425107628  0.2499520134655860
  0.6250243473695259  0.1248204071432549  0.2498647215170318
  0.6249922229752441 -0.0001001396473639  0.3749774795427444
  0.4999609269244543  0.1248466440578365  0.3749187968751480
  0.5624975757602932  0.0624033086225339  0.5625052737490271
  0.6875557045842550  0.1872860545814354  0.5625247661390921
  0.6875176595255796  0.0623648138046988  0.6875217523351289
  0.5625158235818853  0.1872828000552369  0.6875689025562784
  0.4999930756187915 -0.0001111674704575  0.4999952366480740
  0.6250293150931587  0.1248635716431284  0.4999752854281867
  0.6249983817269750 -0.0001192215269667  0.6250014306611645
  0.4999674089105832  0.1248584340350569  0.6250411431512825
  0.5625057579602791  0.0623869216108964  0.8125168015106644
  0.6874803732643880  0.1874441640495976  0.8124985928625885
  0.6875039801986318  0.0624354897690740  0.9374401968416454
  0.5625202053106270  0.1874338573165050  0.9375191229119268
  0.4999987121377389 -0.0001099281801843  0.7500007544112044
  0.6250388563238395  0.1248586959335453  0.7500224858629564
  0.6250163367183423 -0.0001101390904411  0.8749529226561892
  0.5000412954935968  0.1246333933423943  0.8753142393416588
  0.5625091067019223  0.3124151760706437  0.0624149524991049
  0.6875139627290354  0.4374583989535293  0.0624253090094570
  0.6875433149549182  0.3123024286253129  0.1873139643466762
  0.5625117520107507  0.4373641418920453  0.1873450486792526
  0.4999844735102635  0.2499396063373514 -0.0000307840087760
  0.6249929730976634  0.3749662890982499 -0.0000533010502778
  0.6250163076971122  0.2498556235159640  0.1248412263068409
  0.4999534918701450  0.3748940264839314  0.1248864391408157
  0.5625038748687041  0.3123603649266093  0.8126197571657779
  0.6875706745413944  0.4374127845579593  0.8125871499557641
  0.6875442654588146  0.3124538527573506  0.9375154635254479
  0.5625016266209660  0.4374819386692221  0.9374605919793459
  0.5000527101142496  0.2490272164708358  0.7508878071073161
  0.6250483119434657  0.3749299157470536  0.7501159053537382
  0.6250500768013328  0.2499459805166436  0.8750614935019477
  0.4999905663111637  0.3749404786113742  0.8750356038603220
  0.5624931115898874  0.5624781043174484  0.0624578217633676
  0.6875094928589111  0.6875019239391408  0.0624038061770744
  0.6875319096700451  0.5624866159786899  0.1873410889364156
  0.5625046796306976  0.6875055887054563  0.1873477500137397
  0.4999898901750859  0.4999850663882352 -0.0000554113479350
  0.6249874365733665  0.6249812920159786 -0.0000683696205585
  0.6250068740550097  0.4999405236023614  0.1249151614074026
  0.4999561990897511  0.6249833557401391  0.1249248389903948
  0.5623756339992797  0.5623543568501237  0.8124428312538294
  0.6872857342100543  0.6872737035155786  0.8121858005892141
  0.6874519532258399  0.5624623696677233  0.9374290070186885
  0.5624647916568796  0.6874430701645379  0.9374275504410116
  0.4998517676020617  0.4998169988791690  0.7500395672591688
  0.6246819154975585  0.6246566704738107  0.7495728469253156
  0.6249782973874584  0.4999519819362991  0.8749367893251921
  0.4999666341397477  0.6249607476268176  0.8749297683367804
  0.5625050199390379  0.8124812173396536  0.0624290465298445
  0.6875027321186792  0.9374211116266583  0.0624528194112835
  0.6874678308062705  0.8124633743029235  0.1874783374218572
  0.5625232047692045  0.9374795658637077  0.1874567761148497
  0.4999937053762896  0.7499759727940472 -0.0000666702850117
  0.6250109888711096  0.8749233800212830 -0.0000798881240784
  0.6250185643766134  0.7499707552516378  0.1249120555517770
  0.5000369199924616  0.8752696089073476  0.1246715931483980
  0.5624983988740968  0.8125590502190039  0.3124139734771512
  0.6875392357648824  0.9374749606881025  0.3124627206630994
  0.6875517436325179  0.8125422389351715  0.4374398022277664
  0.5625009813268480  0.9374090985762171  0.4374892397243507
  0.5000457028247959  0.7508220258763592  0.2490903949929789
  0.6250308825502752  0.8750096051010708  0.2499836227359097
  0.6250198256425387  0.7500440375036548  0.3749895728696175
  0.4999831836125490  0.8749765609373699  0.3749712998582113
  0.5623703449706330  0.8124018856634796  0.5623810403895115
  0.6874492364587774  0.9373904219463756  0.5624620608443938
  0.6872777570638432  0.8121670562129184  0.6872838211733583
  0.5624606916572286  0.9373910123022653  0.6874535163367012
  0.4998501252961299  0.7499699405265441  0.4998666824786838
  0.6249634869853268  0.8748933522995743  0.4999711049453224
  0.6246735608675487  0.7495382916669076  0.6246866361982704
  0.4999637228497179  0.8748967490059686  0.6249718255149030
  0.5625130364049438  0.8125881184891373  0.8126013552869760
  0.6874785272641721  0.9373795217085408  0.8124124927663106
  0.6874780561646263  0.8124034963555076  0.9373940047564645
  0.5625054635930503  0.9375059547899649  0.9375332029868375
  0.4998903775801293  0.7501726872348814  0.7501996358303917
  0.6249650044082841  0.8748469573735644  0.7498700609134941
  0.6249660949977812  0.7498577281265290  0.8748649593049576
  0.4999776195035273  0.8750474951773245  0.8750685463457700
  0.8125086353442600  0.0624813821798100  0.0624850566572530
  0.9374952407291761  0.1874975685073096  0.0624873651394471
  0.9374971409385785  0.0624813506784247  0.1874974051834588
  0.8125455437358839  0.1874554812122780  0.1874614710674829
  0.7499821203687415 -0.0000167201939132 -0.0000022590417572
  0.8749909710267543  0.1250021469209145 -0.0000106928756765
  0.8749879604790607 -0.0000141928749667  0.1250045322830892
  0.7500182418006337  0.1249729604401074  0.1249786812624102
  0.8125383293814440  0.0624138065967300  0.3124525702837831
  0.9375775149626686  0.1874310675369898  0.3124430693019829
  0.9376425235127579  0.0623228296153052  0.4374619249489846
  0.8130677928184125  0.1868980955214147  0.4373981521038009
  0.7500234127197628 -0.0000480000782190  0.2499770929380252
  0.8750073765199696  0.1249687608128862  0.2499914437141873
  0.8750114262200454 -0.0000529327443289  0.3749914421158826
  0.7500584985968902  0.1248601774097806  0.3749458153148402
  0.8125089811562992  0.0623894263868994  0.5625065958434604
  0.9375067903612709  0.1874327231176572  0.5625242998810296
  0.9374323186519945  0.0624331128959049  0.6875052275170767
  0.8124926479476826  0.1874465570096149  0.6874836788942547
  0.7499940069495160 -0.0001088281331465  0.5000004051474191
  0.8753075014134735  0.1246326630674378  0.5000429533770504
  0.8749442509197856 -0.0001101867049413  0.6250167654716864
  0.7500141643603467  0.1248616975231430  0.6250426206260692
  0.8124953064657751  0.0624936326552705  0.8124954946023369
  0.9374694006896447  0.1874904581390692  0.8125081690975182
  0.9375014647898295  0.0625011592806706  0.9375009358854584
  0.8125041967522553  0.1874925450124008  0.9374749646175249
  0.7500155917835606 -0.0000791120429468  0.7500159482028480
  0.8749956865448250  0.1249860015651311  0.7500022617346066
  0.8749923849799721  0.0000000895350973  0.8749926529029188
  0.7500014494969146  0.1249845484106796  0.8749999077427456
  0.8125306866879742  0.3124529588697773  0.0624421890264416
  0.9376380117162999  0.4374572662451293  0.0623569457197035
  0.9375773293865191  0.3124422396694995  0.1874441078572961
  0.8130431226964858  0.4373845487329786  0.1869355650206355
  0.7500317524734570  0.2499670295014634 -0.0000184513828282
  0.8750114773976845  0.3749864195681342 -0.0000213390535379
  0.8750086986814271  0.2499942822233623  0.1249792135041525
  0.7500407998372818  0.3749363971864589  0.1248887886867509
  0.8126847010109588  0.3123516797703044  0.3123708135125806
  0.9375034855851054  0.4374906214906655  0.3124768842491860
  0.9375031302587944  0.3124642130668166  0.4374982097267701
  0.8125492276054608  0.4373691189831128  0.4374049931855068
  0.7500408300197375  0.2499205159418319  0.2499416329662113
  0.8751353425571342  0.3749468054635421  0.2499095932406148
  0.8751403614023064  0.2498905683331816  0.3749562438480457
  0.7502391268401457  0.3747680669973829  0.3748145873970596
  0.8126101338842389  0.3123642944361890  0.5625106954963311
  0.9374438488558272  0.4374811432668544  0.5625042096377011
  0.9375042864994723  0.3124511835393153  0.6875496051870787
  0.8125807829456588  0.4374137167694058  0.6875790155638815
  0.7508810499597038  0.2490232872092435  0.5000637110206502
  0.8750198096302604  0.3749427451702375  0.4999962415532617
  0.8750517505526290  0.2499475816567213  0.6250533027246443
  0.7501069904449109  0.3749300483124552  0.6250603337381686
  0.8124636997256173  0.3124735308436325  0.8124680355558106
  0.9374846043767975  0.4374682557895349  0.8125261783874564
  0.9374435348834719  0.3124790021936394  0.9374522494262854
  0.8125185159704171  0.4374700476778879  0.9374937821368837
  0.7499656361732919  0.2499457181254614  0.7499715526209781
  0.8750376442715592  0.3749494090750314  0.7500440651762932
  0.8749561153210669  0.2499897445696933  0.8749607883517647
  0.7500380144171604  0.3749497720752046  0.8750442131167930
  0.8124964300732284  0.5625040036799104  0.0624237522751568
  0.9374360351786271  0.6875006744781066  0.0624575919475286
  0.9375053516092000  0.5625155457057871  0.1874583983525259
  0.8124745563111736  0.6874616672080432  0.1874737946387417
  0.7499894497296553  0.4999900054542932 -0.0000687436781002
  0.8749404488674840  0.6250103747391789 -0.0000801428442518
  0.8752893289162151  0.5000341151990113  0.1246666756061252
  0.7499863380065743  0.6250112936446004  0.1249062155957068
  0.8125808294566953  0.5624858121972240  0.3124042238651419
  0.9374989320582560  0.6875290195563266  0.3124679300260614
  0.9374424899957813  0.5624957296109269  0.4374908555063352
  0.8125580765559340  0.6875381459159926  0.4374376435632020
  0.7508485749672519  0.5000252962807219  0.2490861599434350
  0.8750307573712156  0.6250256057739503  0.2499797586921280
  0.8750082547506717  0.4999718814436359  0.3749665768688337
  0.7500670743746150  0.6249986617431978  0.3749878432965972
  0.8124293023360099  0.5623526151741882  0.5623844380820844
  0.9374149310418127  0.6874419762531164  0.5624647098693899
  0.9374166986679380  0.5624611925102808  0.6874556975325591
  0.8121792639058292  0.6872718779570608  0.6872878370953710
  0.7500168359306109  0.4998157739360974  0.4998687845341093
  0.8749158101902551  0.6249552378570854  0.4999728206873948
  0.8749257582025103  0.4999512899059480  0.6249824625166392
  0.7495611010226227  0.6246555964644344  0.6246896013707638
  0.8126045615347571  0.5625072719609009  0.8126089159849701
  0.9373930078300506  0.6874797087859347  0.8124136255776258
  0.9375243837330985  0.5625028043088035  0.9375328136547784
  0.8124115821816885  0.6874795751175038  0.9373982964864914
  0.7501976141550325  0.4998744838026516  0.7502062680577605
  0.8748622982001407  0.6249617224685747  0.7498750868035821
  0.8750665984185900  0.4999740280530011  0.8750736667176526
  0.7498718249449388  0.6249617835178096  0.8748692185862973
  0.8124900203250262  0.8124897437349331  0.0625040468637523
  0.9375013538563793  0.9375023222896630  0.0625021677954756
  0.9374720168143290  0.8124942081066667  0.1875011946903851
  0.8125018929706372  0.9374615108100838  0.1874972667994718
  0.7500021208984803  0.7500014304380921 -0.0000543151150761
  0.8749900738394119  0.8749894743296464  0.0000019639195874
  0.8749806144175901  0.7499881066786573  0.1250047732192107
  0.7499896476876834  0.8749727439031176  0.1250076302091127
  0.8124443434325043  0.8124360504070371  0.3124905042049467
  0.9374408654816341  0.9374249227907492  0.3124841062896717
  0.9374811508239701  0.8125002743919436  0.4374756335961709
  0.8125140127850968  0.9374616596555757  0.4374719488816520
  0.7499375928682160  0.7499263430785325  0.2499837652487763
  0.8749415129553644  0.8749325139958984  0.2499983043239399
  0.8750180666919355  0.7500079655657970  0.3749692932888299
  0.7500180588175608  0.8750024965211017  0.3749694155082996
  0.8125924676781958  0.8125837723742247  0.5625159931781175
  0.9375229798994981  0.9375051710115315  0.5625068004154727
  0.9373874295561373  0.8124029162199560  0.6874773589587887
  0.8124083686628630  0.9373773670883688  0.6874778999014620
  0.7501865285632883  0.7501690114211701  0.4998981106915794
  0.8750582549629837  0.8750442789021035  0.4999793113361835
  0.8748574283299669  0.7498552885771099  0.6249675709543876
  0.7498631263868510  0.8748448969072625  0.6249671749413381
  0.8124110243417525  0.8124098010015540  0.8124115638321848
  0.9374872239789631  0.9374866186288987  0.8124877040518610
  0.9374870585362067  0.8124879266332355  0.9374873558104574
  0.8124877493114779  0.9374865234293760  0.9374874589156228
  0.7498526352384355  0.7498445969605676  0.7498564303438635
  0.8749476065984304  0.8749418394579666  0.7499696238401178
  0.8749453371292455  0.7499705542361814  0.8749480087119887
  0.7499699663019378  0.8749409187517466  0.8749497304618792
  0.3124673408577617  0.3124297772992729  0.3124861322052735
  0.4376749987420991  0.4376187721922347  0.3125207275729598
  0.4376703518600782  0.3124133245628318  0.4377023493252394
  0.3124837531652931  0.4376193637765671  0.4376996253485108
  0.2499389290617750  0.2499213289402026  0.2499475343871843
  0.3750184449820533  0.3749776689901023  0.2500608515744036
  0.3750089328995614  0.2499962731780374  0.3750297545058663
  0.2500384826200325  0.3749764386078836  0.3750327908815584
  0.3121182954207434  0.3120845799154532  0.5626068271573762
  0.4337833126333695  0.4337297406731165  0.5683762471537054
  0.4372974908238961  0.3109731931279095  0.6888618207712195
  0.3110093697792949  0.4372633423275503  0.6888609126540837
  0.2497205899463608  0.2496917417475226  0.5000355399524776
  0.3745763337313219  0.3745181831848621  0.5001319364028568
  0.3748431777463795  0.2496668888664164  0.6251359565090603
  0.2496987414150910  0.3748129149353525  0.6251329161224057
  0.3121519770926948  0.5625236092208711  0.3121688610856794
  0.4373076316458014  0.6887746266414663  0.3110566267277354
  0.4338133367348510  0.5682290526905202  0.4338259080462542
  0.3110484421854213  0.6887661577256017  0.4373266502130403
  0.2497388541334999  0.4999916682058106  0.2497531252040097
  0.3748523541537575  0.6250622380954719  0.2497415950276525
  0.3745813765835717  0.5000447102421809  0.3746093930419309
  0.2497274635860200  0.6250626678242466  0.3748688129949398
  0.3122299711064870  0.5623813173357892  0.5624604548976641
  0.4371990349581351  0.6876322264240770  0.5623169985798199
  0.4371945386602311  0.5622589510490851  0.6877078992403904
  0.3124889033218869  0.6874266941255021  0.6874591350332315
  0.2497037650334865  0.4999671293359566  0.5000338433816585
  0.3729436619096293  0.6268945469168762  0.4999504850820384
  0.3729143296554165  0.4998792364430905  0.6270106217843731
  0.2498910692150022  0.6249494204823086  0.6249901482631338
  0.5625775662308545  0.3120997904556391  0.3121548833505068
  0.6888154186862769  0.4372718378581011  0.3110537942112733
  0.6888520866904982  0.3109653833668429  0.4373127952239835
  0.5683351177784142  0.4337176360111160  0.4338488794984116
  0.5000214935117623  0.2497010037708724  0.2497453023253902
  0.6251045585120444  0.3748189922633486  0.2497288305533661