GaN
    1.000000000000000
     3.1781848092674516    0.0000000000000000    0.0000000000000000
    -1.5890924046337258    2.7523887827474134    0.0000000000000000
     0.0000000000000000   -0.0000000000000000    5.1660844761188232
   Ga   N
     2     2
Direct
  0.3333333333333357  0.6666666666666643  0.9988598130997914
  0.6666666666666643  0.3333333333333357  0.4988598130997985
  0.3333333333333357  0.6666666666666643  0.3761401869002015
  0.6666666666666643  0.3333333333333357  0.8761401869002086

  0.00000000E+00  0.00000000E+00  0.00000000E+00
  0.00000000E+00  0.00000000E+00  0.00000000E+00
  0.00000000E+00  0.00000000E+00  0.00000000E+00
  0.00000000E+00  0.00000000E+00  0.00000000E+00
