
&control
  prefix = 'Si',
  pseudo_dir = './pseudo',
  outdir = './output',

  calculation = 'nscf'
  restart_mode = 'from_scratch',
  tprnfor = .true.
  wf_collect = .true.
  max_seconds = 8.6e4
/
&system    
  ibrav=  0, celldm(1) = 30.7893077475, nat = 216, ntyp= 1,
  ecutwfc = 50.0, ! Original was 75.0; also ecutrho = 450.0
  nbnd = 512, ! Original was 1000
  occupations='smearing', smearing='gauss', degauss=0.001
  la2F = .true.
  nosym = .true.
/
&electrons
  mixing_mode = 'plain'
  mixing_beta = 0.7 
  conv_thr =  1.0d-6 ! Original was 1.0d-8
/
CELL_PARAMETERS (alat)
   1.006896725  -0.000000000   0.000000000
  -0.000000000   1.006896725   0.000000000
   0.000000000   0.000000000   1.006896725
ATOMIC_SPECIES
 Si  28.08550  Si.pbe-n-kjpaw_psl.0.1.UPF

ATOMIC_POSITIONS (alat)
Si      -0.000000000   0.000000000   0.000000000
Si       0.167816120   0.167816120   0.000000000
Si       0.167816120   0.000000000   0.167816121
Si      -0.000000000   0.167816120   0.167816120
Si       0.083908061   0.083908061   0.083908061
Si       0.251724181   0.251724181   0.083908061
Si       0.251724181   0.083908061   0.251724181
Si       0.083908061   0.251724181   0.251724181
Si      -0.000000000   0.000000000   0.335632242
Si       0.167816120   0.167816120   0.335632242
Si       0.167816120   0.000000000   0.503448362
Si      -0.000000000   0.167816120   0.503448362
Si       0.083908061   0.083908061   0.419540301
Si       0.251724181   0.251724181   0.419540301
Si       0.251724181   0.083908061   0.587356423
Si       0.083908061   0.251724181   0.587356423
Si      -0.000000001   0.000000000   0.671264482
Si       0.167816120   0.167816120   0.671264483
Si       0.167816120  -0.000000000   0.839080605
Si      -0.000000001   0.167816120   0.839080605
Si       0.083908060   0.083908061   0.755172544
Si       0.251724181   0.251724181   0.755172544
Si       0.251724181   0.083908061   0.922988665
Si       0.083908061   0.251724181   0.922988664
Si      -0.000000000   0.335632242   0.000000000
Si       0.167816120   0.503448362  -0.000000000
Si       0.167816120   0.335632242   0.167816121
Si      -0.000000000   0.503448362   0.167816120
Si       0.083908061   0.419540301   0.083908061
Si       0.251724181   0.587356423   0.083908061
Si       0.251724181   0.419540301   0.251724181
Si       0.083908061   0.587356424   0.251724181
Si      -0.000000000   0.335632242   0.335632242
Si       0.167816120   0.503448362   0.335632242
Si       0.167816120   0.335632242   0.503448362
Si      -0.000000000   0.503448362   0.503448363
Si       0.083908061   0.419540301   0.419540302
Si       0.251724181   0.587356424   0.419540302
Si       0.251724181   0.419540301   0.587356423
Si       0.083908061   0.587356424   0.587356424
Si      -0.000000000   0.335632242   0.671264483
Si       0.167816120   0.503448362   0.671264483
Si       0.167816120   0.335632242   0.839080605
Si      -0.000000000   0.503448363   0.839080605
Si       0.083908061   0.419540301   0.755172544
Si       0.251724181   0.587356424   0.755172544
Si       0.251724181   0.419540301   0.922988664
Si       0.083908061   0.587356424   0.922988664
Si      -0.000000000   0.671264483  -0.000000000
Si       0.167816120   0.839080605   0.000000000
Si       0.167816120   0.671264483   0.167816120
Si      -0.000000000   0.839080606   0.167816120
Si       0.083908061   0.755172544   0.083908061
Si       0.251724181   0.922988665   0.083908061
Si       0.251724181   0.755172545   0.251724181
Si       0.083908061   0.922988665   0.251724181
Si      -0.000000000   0.671264483   0.335632242
Si       0.167816120   0.839080606   0.335632242
Si       0.167816120   0.671264483   0.503448363
Si      -0.000000000   0.839080606   0.503448363
Si       0.083908061   0.755172544   0.419540302
Si       0.251724181   0.922988665   0.419540302
Si       0.251724181   0.755172544   0.587356424
Si       0.083908061   0.922988665   0.587356423
Si      -0.000000000   0.671264483   0.671264483
Si       0.167816120   0.839080605   0.671264483
Si       0.167816120   0.671264483   0.839080605
Si      -0.000000000   0.839080605   0.839080605
Si       0.083908061   0.755172544   0.755172544
Si       0.251724181   0.922988664   0.755172544
Si       0.251724181   0.755172544   0.922988664
Si       0.083908061   0.922988664   0.922988664
Si       0.335632242   0.000000000   0.000000000
Si       0.503448363   0.167816120   0.000000000
Si       0.503448363   0.000000000   0.167816121
Si       0.335632242   0.167816120   0.167816121
Si       0.419540302   0.083908061   0.083908061
Si       0.587356424   0.251724181   0.083908061
Si       0.587356424   0.083908061   0.251724182
Si       0.419540302   0.251724181   0.251724182
Si       0.335632242   0.000000000   0.335632242
Si       0.503448363   0.167816120   0.335632242
Si       0.503448363   0.000000000   0.503448362
Si       0.335632242   0.167816120   0.503448362
Si       0.419540302   0.083908061   0.419540301
Si       0.587356424   0.251724181   0.419540301
Si       0.587356424   0.083908061   0.587356423
Si       0.419540302   0.251724181   0.587356423
Si       0.335632242  -0.000000000   0.671264483
Si       0.503448363   0.167816120   0.671264483
Si       0.503448363   0.000000000   0.839080605
Si       0.335632242   0.167816120   0.839080605
Si       0.419540302   0.083908061   0.755172544
Si       0.587356424   0.251724181   0.755172544
Si       0.587356424   0.083908061   0.922988664
Si       0.419540302   0.251724181   0.922988665
Si       0.335632242   0.335632242   0.000000000
Si       0.503448363   0.503448363   0.000000000
Si       0.503448363   0.335632242   0.167816121
Si       0.335632242   0.503448362   0.167816120
Si       0.419540302   0.419540301   0.083908061
Si       0.587356424   0.587356424   0.083908061
Si       0.587356424   0.419540301   0.251724181
Si       0.419540302   0.587356423   0.251724181
Si       0.335632242   0.335632242   0.335632242
Si       0.503448363   0.503448362   0.335632242
Si       0.503448363   0.335632242   0.503448362
Si       0.335632242   0.503448362   0.503448363
Si       0.419540302   0.419540301   0.419540301
Si       0.587356424   0.587356424   0.419540302
Si       0.587356424   0.419540301   0.587356423
Si       0.419540302   0.587356424   0.587356424
Si       0.335632242   0.335632242   0.671264483
Si       0.503448363   0.503448362   0.671264483
Si       0.503448363   0.335632242   0.839080605
Si       0.335632242   0.503448363   0.839080605
Si       0.419540302   0.419540301   0.755172544
Si       0.587356424   0.587356424   0.755172544
Si       0.587356424   0.419540302   0.922988664
Si       0.419540302   0.587356424   0.922988664
Si       0.335632243   0.671264483   0.000000000
Si       0.503448363   0.839080605   0.000000000
Si       0.503448363   0.671264483   0.167816120
Si       0.335632243   0.839080605   0.167816120
Si       0.419540302   0.755172544   0.083908061
Si       0.587356424   0.922988664   0.083908061
Si       0.587356424   0.755172544   0.251724181
Si       0.419540302   0.922988665   0.251724181
Si       0.335632242   0.671264483   0.335632242
Si       0.503448363   0.839080605   0.335632242
Si       0.503448363   0.671264483   0.503448363
Si       0.335632242   0.839080605   0.503448362
Si       0.419540302   0.755172545   0.419540302
Si       0.587356424   0.922988665   0.419540302
Si       0.587356424   0.755172544   0.587356423
Si       0.419540302   0.922988665   0.587356423
Si       0.335632242   0.671264483   0.671264483
Si       0.503448363   0.839080605   0.671264483
Si       0.503448363   0.671264483   0.839080605
Si       0.335632242   0.839080605   0.839080605
Si       0.419540302   0.755172544   0.755172544
Si       0.587356424   0.922988664   0.755172544
Si       0.587356424   0.755172544   0.922988665
Si       0.419540302   0.922988664   0.922988664
Si       0.671264483   0.000000000   0.000000000
Si       0.839080605   0.167816120   0.000000000
Si       0.839080605   0.000000000   0.167816121
Si       0.671264483   0.167816120   0.167816121
Si       0.755172544   0.083908061   0.083908061
Si       0.922988664   0.251724181   0.083908061
Si       0.922988664   0.083908061   0.251724181
Si       0.755172544   0.251724181   0.251724182
Si       0.671264483   0.000000000   0.335632242
Si       0.839080605   0.167816120   0.335632243
Si       0.839080605   0.000000000   0.503448362
Si       0.671264483   0.167816120   0.503448362
Si       0.755172544   0.083908061   0.419540302
Si       0.922988664   0.251724181   0.419540302
Si       0.922988664   0.083908061   0.587356423
Si       0.755172544   0.251724181   0.587356423
Si       0.671264483   0.000000000   0.671264483
Si       0.839080605   0.167816120   0.671264483
Si       0.839080605   0.000000000   0.839080605
Si       0.671264483   0.167816120   0.839080605
Si       0.755172544   0.083908061   0.755172544
Si       0.922988664   0.251724181   0.755172544
Si       0.922988664   0.083908061   0.922988664
Si       0.755172544   0.251724181   0.922988664
Si       0.671264483   0.335632242   0.000000000
Si       0.839080605   0.503448362  -0.000000000
Si       0.839080605   0.335632242   0.167816120
Si       0.671264483   0.503448362   0.167816120
Si       0.755172544   0.419540301   0.083908061
Si       0.922988664   0.587356424   0.083908061
Si       0.922988664   0.419540301   0.251724181
Si       0.755172544   0.587356424   0.251724181
Si       0.671264483   0.335632242   0.335632242
Si       0.839080605   0.503448362   0.335632242
Si       0.839080605   0.335632242   0.503448363
Si       0.671264483   0.503448362   0.503448363
Si       0.755172544   0.419540301   0.419540302
Si       0.922988664   0.587356424   0.419540302
Si       0.922988664   0.419540301   0.587356423
Si       0.755172544   0.587356424   0.587356424
Si       0.671264483   0.335632242   0.671264483
Si       0.839080605   0.503448362   0.671264483
Si       0.839080605   0.335632242   0.839080605
Si       0.671264483   0.503448363   0.839080605
Si       0.755172544   0.419540301   0.755172544
Si       0.922988664   0.587356424   0.755172544
Si       0.922988664   0.419540301   0.922988664
Si       0.755172544   0.587356424   0.922988664
Si       0.671264483   0.671264483   0.000000000
Si       0.839080605   0.839080605   0.000000000
Si       0.839080605   0.671264483   0.167816120
Si       0.671264483   0.839080605   0.167816120
Si       0.755172544   0.755172544   0.083908061
Si       0.922988664   0.922988665   0.083908061
Si       0.922988664   0.755172545   0.251724181
Si       0.755172544   0.922988665   0.251724181
Si       0.671264483   0.671264483   0.335632242
Si       0.839080605   0.839080606   0.335632242
Si       0.839080605   0.671264483   0.503448363
Si       0.671264483   0.839080606   0.503448362
Si       0.755172544   0.755172545   0.419540302
Si       0.922988664   0.922988665   0.419540302
Si       0.922988664   0.755172544   0.587356424
Si       0.755172544   0.922988665   0.587356423
Si       0.671264483   0.671264483   0.671264483
Si       0.839080604   0.839080605   0.671264483
Si       0.839080605   0.671264483   0.839080605
Si       0.671264483   0.839080605   0.839080605
Si       0.755172544   0.755172544   0.755172544
Si       0.922988664   0.922988665   0.755172544
Si       0.922988664   0.755172544   0.922988664
Si       0.755172544   0.922988664   0.922988664
K_POINTS {automatic}
  3 3 3 0 0 0
