Si                                      
   1.00000000000000     
    21.8806751037877660    0.0000000000000000    0.0000000000000000
     0.0000000000000000   21.8806751037877660    0.0000000000000000
     0.0000000000000000    0.0000000000000000   21.8806751037877660
   Si   H 
   511     3
Direct
  0.0624700791967143  0.0624991605421386  0.0624991604518357
  0.0623128982532961  0.0623221978828639  0.5625622516896769
  0.0623128946364275  0.5625622530783474  0.0623221937555059
  0.0624860441643165  0.5625151163537438  0.5625151168964138
  0.5625669387705443  0.0624929563823500  0.0624929572973016
  0.5625098939791187  0.0625136477472310  0.5625205000232327
  0.5625098944902618  0.5625204990337593  0.0625136484201505
  0.5684486148964538  0.5663371264974373  0.5663371382120488
  0.1874159417268970  0.1874512371402872  0.0625395131755653
  0.1868567573144873  0.1868724579486951  0.5625960667267478
  0.1873815375980499  0.6876058305687494  0.0623784607091338
  0.1875154867991924  0.6875135421266307  0.5624725388522052
  0.6875418424496758  0.1875654351443430  0.0626350921076479
  0.6875919703066273  0.1873814689834177  0.5625817850539789
  0.6875905460306981  0.6875565636801539  0.0624368172995062
  0.6889175616077310  0.6890634766170578  0.5628053997845726
  0.1874159424686397  0.0625395137293836  0.1874512359173863
  0.1873815371493635  0.0623784626371489  0.6876058308958619
  0.1868567541125330  0.5625960731331716  0.1868724515632536
  0.1875154869202547  0.5624725396218224  0.6875135399407810
  0.6875418419397548  0.0626350930823207  0.1875654348803053
  0.6875905488702685  0.0624368160465920  0.6875565635867176
  0.6875919672166191  0.5625817874858043  0.1873814727441996
  0.6889175591791670  0.5628053880343771  0.6890634794126100
  0.0624441713225252  0.1874902216001360  0.1874902200181410
  0.0623890187637244  0.1874055790761133  0.6875896939194277
  0.0623890169897336  0.6875896931733649  0.1874055786701376
  0.0624805974502820  0.6875417369196697  0.6875417363980389
  0.5625325201066147  0.1873340194265865  0.1873340183233481
  0.5625247047114286  0.1873169797411336  0.6876730693770696
  0.5625247019895312  0.6876730726785425  0.1873169841133304
  0.5626439781884898  0.6879322136354560  0.6879322168997888
  0.9999949333155982  0.0000050665241034  0.0000050666749871
  0.9999580713707985  0.0000419337620627  0.4999678902701632
  0.9999580694337880  0.4999678902047719  0.0000419290727152
  0.9999840017837514  0.4999969779363909  0.4999969776970872
  0.5000321093549900  0.0000419302159003  0.0000419316497329
  0.5000030209879682  0.0000159965572237  0.4999969789814358
  0.5000030201416763  0.4999969784587037  0.0000159974829614
  0.1249656716891892  0.1249740746183150  0.0000107836552772
  0.1245981554501725  0.1246375095960488  0.4999342923850421
  0.1249446625088382  0.6250529150172355  0.9999347683728246
  0.1249498433051457  0.6250518281609843  0.4999980973866016
  0.6250762226959452  0.1250659630445483  0.0001290300024905
  0.6250022789456580  0.1250300910614399  0.5000166299330360
  0.6250288887362885  0.6250231258875658  0.0000137138568164
  0.6270747775676213  0.6271666086374594  0.5001329581465157
  0.1249656721766925  0.0000107829417644  0.1249740737300229
  0.1249446626891313  0.9999347694074032  0.6250529153002233
  0.1245981535106182  0.4999342974549208  0.1246375035107334
  0.1249498440190067  0.4999980969224254  0.6250518274864305
  0.6250762227683069  0.0001290294709975  0.1250659641987255
  0.6250288904686627  0.0000137134828933  0.6250231262380197
  0.6250022796358223  0.5000166304231186  0.1250300919988518
  0.6270747754778441  0.5001329377333406  0.6271666162442955
  0.9999704951468402  0.1250038928086497  0.1250038918348295
  0.9999483445323136  0.1249448933125166  0.6250454473362055
  0.9999483430035525  0.6250454464559851  0.1249448936569024
  0.9999988126675916  0.6250261559921242  0.6250261537898538
  0.4999752804084636  0.1248993991730103  0.1248993974279458
  0.4999857786464972  0.1249405281608276  0.6250796371224112
  0.4999857802808663  0.6250796392812248  0.1249405283521838
  0.5001714276107023  0.6254880144327615  0.6254880183462177
  0.0623945448951204  0.0625866159122168  0.3124545916276702
  0.0624634377390620  0.0624644211835275  0.8125441375234175
  0.0624397759024689  0.5625010425048274  0.3124440095464323
  0.0624912365861192  0.5625210220161136  0.8125365322759208
  0.5624932298597187  0.0625435276376010  0.3125028883614505
  0.5625382405633346  0.0624281308672607  0.8126034799400941
  0.5622775390400250  0.5628846116037280  0.3122236926632951
  0.5625780886968172  0.5625785354247981  0.8126551008410630
  0.1874591729807094  0.1874815044896749  0.3124642160055302
  0.1874267912526690  0.1874296499682586  0.8125732096439009
  0.1871824664963029  0.6877360318420500  0.3123667175136831
  0.1875091979868415  0.6875127415282449  0.8124908026092257
  0.6872771515899530  0.1878123803637024  0.3127228467893275
  0.6875357832663624  0.1874815028196650  0.8125408275221204
  0.6874991845820801  0.6875237477306442  0.3125008162829914
  0.6876332783720329  0.6877360306070486  0.8128175320363269
  0.1873965220704434  0.0624281313123234  0.4374617578791131
  0.1874558624020750  0.0624644212161272  0.9375365628003038
  0.1873448971939524  0.5625785394335026  0.4374219061096198
  0.1874634659239689  0.5625210213245921  0.9375087622218530
  0.6874971115389954  0.0625435279505311  0.4375067684017822
  0.6875454088960566  0.0625866156669375  0.9376054570519798
  0.6877763135722859  0.5628846147303008  0.4377224649584264
  0.6875559888995824  0.5625010408316484  0.9375602225793855
  0.0623758960755652  0.1874402004323272  0.4374587005998833
  0.0624460350526377  0.1874639436530927  0.9375539659151428
  0.0624576868801441  0.6875553422795377  0.4374879375265763
  0.0625042664570046  0.6875900123730005  0.9374957342381407
  0.5623984913777775  0.1875296898723633  0.4376015087016469
  0.5625412970172619  0.1874401966442534  0.9376241033604913
  0.5624987828982455  0.6877928889605300  0.4375012322717495
  0.5625120613578645  0.6875553408285811  0.9375423129017690
  0.9999607054767665  0.0000392973646299  0.2499864967704681
  0.0000005827485126  0.9999994156932317  0.7500445074646436
  0.9999454224199340  0.4999828813470231  0.2499652881328842
  0.0000047192223036  0.4999951066457058  0.7500675697408425
  0.5000171180176736  0.0000545783767123  0.2499652870065603
  0.5000048941215667  0.9999952792917526  0.7500675715828464
  0.4998323915931309  0.5001676133815707  0.2499086629648914
  0.5000505528475756  0.4999494399606590  0.7502963929037207
  0.1249391705866216  0.1250169660306923  0.2499634755920681
  0.1249347218628287  0.1249504940402772  0.7500601225775085
  0.1248087363047006  0.6250589585242778  0.2498599634694543
  0.1249952148155913  0.6250105546875986  0.7500054381013612
  0.6250013744859828  0.1251159690500501  0.2500991009257874
  0.6250855196780520  0.1248720590750878  0.7500908700875257
  0.6250613772575164  0.6250987595596769  0.2498302075287953
  0.6251789514049975  0.6252341314414025  0.7503892697956331
  0.1248726036687060  0.0000694063813711  0.3749279893023427
  0.1249678455020202  0.9999989735043897  0.8750321547819127
  0.1249330551517573  0.4999930209452472  0.3749283239332968
  0.1248225934478953  0.5000200011553346  0.8751774044217058
  0.6250292311003705  0.0000397839846187  0.3749707682749985
  0.6250720094895357  0.0000694063405149  0.8751273988508785
  0.6247873314961012  0.5007112007039325  0.3752126746421567
  0.6250716720658218  0.4999930182910362  0.8750669451389683
  0.9998709712025899  0.1250659640785585  0.3749237761474760
  0.9999892170907003  0.1249740745519148  0.8750343292050715
  0.9999862861746607  0.6250231292684205  0.3749711086768883
  0.0000652322105807  0.6250529144926418  0.8750553384403617
  0.4999833692128277  0.1250300925928087  0.3749977194891088
  0.5000657013766983  0.1246375070725065  0.8754018442954532
  0.4998670594752497  0.6271666044084441  0.3729252403121848
  0.5000019012754251  0.6250518265451532  0.8750501567529838
  0.0623945439281854  0.3124545938686012  0.0625866148434042
  0.0624397760794295  0.3124440089211902  0.5625010442404275
  0.0624634382863789  0.8125441349558855  0.0624644212134413
  0.0624912374566975  0.8125365355868439  0.5625210218300367
  0.5624932307665134  0.3125028876882538  0.0625435280879003
  0.5622775421285766  0.3122236820548849  0.5628846106832910
  0.5625382391549962  0.8126034815591083  0.0624281316166631
  0.5625780916303640  0.8126550995747692  0.5625785410079658
  0.1873965199695391  0.4374617599143846  0.0624281284312787
  0.1873448981139774  0.4374219076709949  0.5625785369390144
  0.1874558635997516  0.9375365602237764  0.0624644224044957
  0.1874634679042515  0.9375087638632067  0.5625210236030327
  0.6874971108639869  0.4375067692699659  0.0625435274981072
  0.6877763124458554  0.4377224598753955  0.5628846107575285
  0.6875454081057271  0.9376054582503599  0.0625866139184055
  0.6875559911914380  0.9375602236626293  0.5625010401554249
  0.1874591717652763  0.3124642188149025  0.1874815028829744
  0.1871824696121394  0.3123667181237622  0.6877360309049791
  0.1874267922973232  0.8125732067651299  0.1874296489279104
  0.1875091978694314  0.8124908018112365  0.6875127430885684
  0.6872771525739836  0.3127228488523457  0.1878123782528220
  0.6874991854270576  0.3125008156684075  0.6875237476901788
  0.6875357817104515  0.8125408287183262  0.1874815029656531
  0.6876332814490240  0.8128175326057061  0.6877360341531826
  0.0623758963837915  0.4374587044127125  0.1874401962079233
  0.0624576872855087  0.4374879377692409  0.6875553410986370
  0.0624460362581019  0.9375539645732829  0.1874639428962084
  0.0625042669102669  0.9374957347918453  0.6875900140758588
  0.5623984889782747  0.4376015120435923  0.1875296905639061
  0.5624987735522424  0.4375012175412252  0.6877928913178835
  0.5625412985413476  0.9376241033085009  0.1874402005231843
  0.5625120615486168  0.9375423126184828  0.6875553404442485
  0.9999607040546223  0.2499864992496228  0.0000392973505825
  0.9999454221821367  0.2499652877859759  0.4999828817489771
  0.0000005830101628  0.7500445055556284  0.9999994164344983
  0.0000047202434885  0.7500675741591039  0.4999951050674269
  0.5000171186531830  0.2499652870080382  0.0000545777653969
  0.4998323904186961  0.2499086613303447  0.5001676069884269
  0.5000048938106900  0.7500675713421359  0.9999952806015031
  0.5000505570251690  0.7502963904484190  0.4999494467787784
  0.1248726014238670  0.3749279919320685  0.0000694041841243
  0.1249330534511301  0.3749283251989652  0.4999930210200958
  0.1249678462087758  0.8750321525569049  0.9999989747318807
  0.1248225921249713  0.8751774112252946  0.5000200007082256
  0.6250292313091634  0.3749707674134797  0.0000397847729445
  0.6247873310459227  0.3752126676172054  0.5007111965660371
  0.6250720085507453  0.8751273990419079  0.0000694060644406
  0.6250716745851719  0.8750669423297879  0.4999930225098197
  0.1249391694802142  0.2499634774906028  0.1250169642395988
  0.1248087389764407  0.2498599637400716  0.6250589570104594
  0.1249347218395087  0.7500601200458377  0.1249504936477450
  0.1249952136068941  0.7500054397680174  0.6250105542069591
  0.6250013761079103  0.2500991004268869  0.1251159688101495
  0.6250613827064129  0.2498302025257431  0.6250987592272708
  0.6250855170798317  0.7500908708716878  0.1248720606158642
  0.6251789530120746  0.7503892676798500  0.6252341393046450
  0.9998709703263486  0.3749237789091637  0.1250659619940535
  0.9999862854062229  0.3749711085285057  0.6250231292945330
  0.9999892178241439  0.8750343282225117  0.1249740736463423
  0.0000652325621999  0.8750553388590134  0.6250529163750329
  0.4999833708356149  0.3749977220147969  0.1250300910713875
  0.4998670566705954  0.3729252232921425  0.6271666001813401
  0.5000657031439175  0.8754018459441113  0.1246375119798770
  0.5000019006596972  0.8750501543392630  0.6250518300991672
  0.0623614692034877  0.3124174540842759  0.3124174511185487
  0.0623567462020986  0.3123981063558787  0.8126561503373253
  0.0623567449644753  0.8126561510967889  0.3123981048190956
  0.0625295906857062  0.8125697873810083  0.8125697896038133
  0.5619523764735561  0.3124783528551873  0.3124783486261151
  0.5625447641672352  0.3123578033394026  0.8126923687700938
  0.5625447684996132  0.8126923678511204  0.3123578141010697
  0.5625641742294434  0.8127635918209819  0.8127635923165855
  0.1873076294814240  0.4374552366800515  0.3123578023196174
  0.1872364111133678  0.4374358245859327  0.8127635870380345
  0.1873438514722494  0.9376432547926044  0.3123981038797297
  0.1874302107840791  0.9374704095089683  0.8125697891439856
  0.6875216447047023  0.4380476282498051  0.3124783550020140
  0.6876421902961738  0.4374552315178235  0.8126923700743589
  0.6875825487796305  0.9376385294396457  0.3124174532820163
  0.6876018948185205  0.9376432550670160  0.8126561496225975
  0.1873076279825270  0.3123578113718892  0.4374552299909737
  0.1873438500219393  0.3123981062386960  0.9376432539216140
  0.1872364077116657  0.8127635930449983  0.4374358238351945
  0.1874302109176540  0.8125697874803990  0.9374704103299649
  0.6875216492753609  0.3124783538383227  0.4380476239701281
  0.6875825476365094  0.3124174520593783  0.9376385296809957
  0.6876421965559274  0.8126923666827679  0.4374552397172948
  0.6876018936954225  0.8126561493560658  0.9376432546174414
  0.0624776217464316  0.4374791478257123  0.4374791464040015
  0.0623834337891935  0.4374389960094547  0.9376165656556879
  0.0623834338447224  0.9376165698987506  0.4374389943399279
  0.0624858822281453  0.9375141155992637  0.9375141175857138
  0.5648524320485890  0.4351475642503573  0.4351475642868934
  0.5625208502538683  0.4374791450996582  0.9375223787730107
  0.5625208527980803  0.9375223766202510  0.4374791491530061
  0.5625610046350573  0.9376165677633921  0.9376165672989387
  0.9998865122052365  0.2499427756224790  0.2499427735758388
  0.9999527896644977  0.2499039329439796  0.7500956880161596
  0.9999527882763388  0.7500956883032615  0.2499039317502252
  0.0000737264236150  0.7500943030781499  0.7500943058429641
  0.4998805548662801  0.2497209384088706  0.2497209319424556
  0.5000273241668580  0.2490496234369814  0.7509678543450349
  0.5000273263211525  0.7509678580767272  0.2490496348537476
  0.5000868618496739  0.7503074997481747  0.7503075054523123
  0.1248514110631973  0.3749177891818931  0.2499227449488330
  0.1247738051142875  0.3749434301889707  0.7502004436631822
  0.1249372263962840  0.8750627748544915  0.2499321248028608
  0.1250034306233445  0.8749965684198173  0.7500551154952007
  0.6246761649346482  0.3753238385672901  0.2504569865434405
  0.6250525275028096  0.3749474673944206  0.7501684557197308
  0.6250822125311686  0.8751485865966799  0.2499227507047621
  0.6250565677880005  0.8752261965999324  0.7502004469725989
  0.1248514114035189  0.2499227489679470  0.3749177842755103
  0.1249372248766250  0.2499321261714371  0.8750627758243255
  0.1247738035927526  0.7502004464929257  0.3749434297026468
  0.1250034308032610  0.7500551141076315  0.8749965700719144
  0.6246761639416007  0.2504569899096154  0.3753238356005966
  0.6250822120836759  0.2499227455962227  0.8751485884297381
  0.6250525322571079  0.7501684529227859  0.3749474770283996
  0.6250565674735356  0.7502004455193614  0.8752261962096384
  0.9999602145797226  0.3749707684668522  0.3749707689609210
  0.9999305942938861  0.3749279926141540  0.8751273976697362
  0.9999305949403450  0.8751274013490118  0.3749279905085672
  0.0000010253959672  0.8750321518830546  0.8750321536398502
  0.4992888026309501  0.3752126697908835  0.3752126597353396
  0.5000069784192789  0.3749283219541937  0.8750669444173838
  0.5000069783272849  0.8750669436878695  0.3749283280238274
  0.4999799976037309  0.8751774089250404  0.8751774098259517
  0.3124171662009800  0.0625029063434184  0.0625029066910301
  0.3124248436398318  0.0624551764801353  0.5625203108820642
  0.3124248435253349  0.5625203096512408  0.0624551752936782
  0.3125178540726381  0.5622735622597617  0.5622735619352071
  0.8124859115506737  0.0625382180111487  0.0625382168077877
  0.8125543198958241  0.0624790441107095  0.5625221811175152
  0.8125543177904149  0.5625221806269707  0.0624790446117842
  0.8126261066006464  0.5626371475671164  0.5626371486312109
  0.4374778174018772  0.1874456811611154  0.0624790428720772
  0.4373628502462381  0.1873738935504718  0.5626371476535255
  0.4374796900030802  0.6875751569335122  0.0624551756057272
  0.4377264339873506  0.6874821411665053  0.5622735644809964
  0.9374617824355269  0.1875140902274737  0.0625382184425405
  0.9375209568263969  0.1874456810641334  0.5625221829157283
  0.9374970933470763  0.6875828316063917  0.0625029054069302
  0.9375448251606215  0.6875751579266876  0.5625203077667180
  0.4374778180775181  0.0624790434235933  0.1874456791051387
  0.4374796902757581  0.0624551764311221  0.6875751593612875
  0.4373628508464762  0.5626371507687367  0.1873738926514150
  0.4377264343365752  0.5622735595118797  0.6874821419189843
  0.9374617825823961  0.0625382191788404  0.1875140886659352
  0.9374970943410403  0.0625029059867899  0.6875828340549290
  0.9375209559810855  0.5625221821521365  0.1874456832577565
  0.9375448235418560  0.5625203098979412  0.6875751539514781
  0.3124664557658861  0.1874820549402401  0.1874820522906617
  0.3122991233579242  0.1871826583159617  0.6877008737912078
  0.3122991260697034  0.6877008745703392  0.1871826582355141
  0.3125826420547568  0.6874173540728421  0.6874173576604292
  0.8124083352461753  0.1875916659113344  0.1875916640409656
  0.8125179465158965  0.1874820538126301  0.6875335448793578
  0.8125179462586090  0.6875335442706643  0.1874820540953621
  0.8128173431444878  0.6877008732035037  0.6877008764226673
  0.2499554928862509  0.9999994164857213  0.9999994177906473
  0.2499324305723079  0.9999952809138577  0.4999951058724506
  0.2499324300441970  0.4999951058552696  0.9999952789071145
  0.2497036052659496  0.4999494435623717  0.4999494396959534
  0.7500135030956159  0.0000392960278361  0.0000392949987287
  0.7500347129368095  0.0000545786554795  0.4999828806491422
  0.7500347108214456  0.4999828810701032  0.0000545775009471
  0.7500913357520318  0.5001676080999147  0.5001676091263363
  0.3749545517517561  0.1249448939632671  0.0000516563406805
  0.3749203620254491  0.1249405282767952  0.5000142195201960
  0.3749738446828985  0.6250261553189986  0.0000011882241466
  0.3745119771066783  0.6254880183279852  0.4998285722578970
  0.8749961088242841  0.1250038928645623  0.0000295054867507
  0.8751006017315532  0.1248993999965080  0.5000247189946450
  0.8750551052237157  0.6250454455115531  0.0000516563318271
  0.8750594726692640  0.6250796372705736  0.5000142205488416
  0.3749545522246152  0.0000516558950068  0.1249448934587747
  0.3749738451538818  0.0000011895299750  0.6250261567055375
  0.3749203633449838  0.5000142209138616  0.1249405261513274
  0.3745119859670254  0.4998285677016270  0.6254880059265275
  0.8749961084208948  0.0000295061391711  0.1250038919290333
  0.8750551065751608  0.0000516575891041  0.6250454481975467
  0.8751006005703559  0.5000247191251930  0.1248994011060347
  0.8750594718178561  0.5000142188570322  0.6250796370693550
  0.2499445248616610  0.1250048169334548  0.1250048159792527
  0.2498190560158662  0.1247892944935955  0.6250716078296676
  0.2498190577598507  0.6250716114057582  0.1247892914305808
  0.2500979522659321  0.6249137088755816  0.6249137089069805
  0.7500165688371396  0.1250744636719503  0.1250744625896161
  0.7500755129743624  0.1249274317608808  0.6250499580234319
  0.7500755099913192  0.6250499580435047  0.1249274340987299
  0.7503723501870994  0.6252711248414329  0.6252711329090772
  0.3124434368205016  0.0624368160902407  0.3124094495115344
  0.3123941675043156  0.0623784618633820  0.8126184632164879
  0.3109365244664417  0.5628053908845700  0.3110824400312140
  0.3124864558570479  0.5624725370112031  0.8124845091802371
  0.8124345650240059  0.0626350933563558  0.3124581583716193
  0.8125487647552205  0.0625395133810258  0.8125840586893105
  0.8126185295998454  0.5625817900373917  0.3124080365123447
  0.8131275454335949  0.5625960718421510  0.8131432458000987
  0.4374182145006316  0.1873814696591793  0.3124080258078052
  0.4374039274017960  0.1868724554861032  0.8131432434676427
  0.4371946128238164  0.6890634699253226  0.3110824511052357
  0.4375274578215596  0.6875135392100375  0.8124845134874334
  0.9373649079724018  0.1875654358951593  0.3124581575323546
  0.9374604870834560  0.1874512366335992  0.8125840593096996
  0.9375631825661586  0.6875565681409341  0.3124094534818482
  0.9376215389797977  0.6876058291224680  0.8126184624653519
  0.4374795007893084  0.0625136479851776  0.4374901049477558
  0.4374377469171762  0.0623221953579787  0.9376871054372060
  0.4336628743834368  0.5663371238422741  0.4315513989956656
  0.4374848804876379  0.5625151164300490  0.9375139555912924
  0.9375070444068569  0.0624929578854463  0.4374330607396502
  0.9375008388234889  0.0624991602125888  0.9375299204402339
  0.9374863529704740  0.5625205003863911  0.4374901036139889
  0.9376778044414564  0.5625622525431311  0.9376871041550601
  0.3123269315791788  0.1873169805641623  0.4374752908083721
  0.3124103054916532  0.1874055792088285  0.9376109822503835
  0.3120677831998009  0.6879322152349161  0.4373560194044259
  0.3124582618744682  0.6875417357691447  0.9375194033776424
  0.8126659805709551  0.1873340206660998  0.4374674796502092
  0.8125097803306431  0.1874902217873711  0.9375558292778550
  0.8126830189737007  0.6876730747460158  0.4374753012995356
  0.8125944192104200  0.6875896914598272  0.9376109816558795
  0.2499043137693135  0.0000472113305605  0.2499039311682054
  0.2499056945261415  0.9999262750574900  0.7500943044648594
  0.2490321405950837  0.4999726749625779  0.2490496185759099
  0.2496924994000551  0.4999131354283151  0.7503074943402765
  0.7500572255677014  0.0001134883873632  0.2499427755426140
  0.7500960682793405  0.0000472122911290  0.7500956878500133
  0.7502790622224680  0.5001194485051954  0.2497209423596871
  0.7509503754283173  0.4999726727891698  0.7509678643978717
  0.3749500415943672  0.1249274317081017  0.2499244849856979
  0.3749283871083051  0.1247892935026869  0.7501809419190621
  0.3747288735464025  0.6252711296842861  0.2496276540653781
  0.3750862895690688  0.6249137056653709  0.7499020460404608
  0.8749255370315794  0.1250744639873957  0.2499834307730993
  0.8749951844963206  0.1250048164645463  0.7500554755815969
  0.8750725668426682  0.6250499598705588  0.2499244914252259
  0.8752107083566614  0.6250716093252819  0.7501809438154012
  0.3749768738000512  0.0000137137773137  0.3749711087260366
  0.3749470834496194  0.9999347691348532  0.8750553381308919
  0.3728333960018375  0.5001329469318847  0.3729252222716042
  0.3749481691552958  0.4999980965696054  0.8750501547879566
  0.8749340370520429  0.0001290306473294  0.3749237782242574
  0.8750259264789690  0.0000107816465160  0.8750343274000301
  0.8749699089404288  0.5000166306910998  0.3749977211243234
  0.8753624925575636  0.4999342972875311  0.8754018475252821
  0.2499091303015533  0.1248720595224526  0.3749144768773007
  0.2499398777831772  0.1249504944307063  0.8750652790674422
  0.2496107306451023  0.6252341345239714  0.3748210442607913
  0.2499945612685792  0.6250105533489574  0.8750047851242826
  0.7499008985985895  0.1251159700625166  0.3749986236477056
  0.7500365244761937  0.1250169659257594  0.8750608301013756
  0.7501697948829289  0.6250987637164371  0.3749386253685643
  0.7501400331296111  0.6250589581919215  0.8751912627757861
  0.3124434345984852  0.3124094515617841  0.0624368149797760
  0.3109365248509661  0.3110824425872423  0.5628053810615796
  0.3123941698154837  0.8126184626070199  0.0623784614966496
  0.3124864569449528  0.8124845106247776  0.5624725419456595
  0.8124345654921967  0.3124581594079245  0.0626350922168086
  0.8126185308667289  0.3124080317060063  0.5625817890081919
  0.8125487634424289  0.8125840569886194  0.0625395123281223
  0.8131275488829317  0.8131432488983563  0.5625960787101150
  0.4374795006325414  0.4374901041429666  0.0625136467464316
  0.4336628785082510  0.4315513906554500  0.5663371113957751
  0.4374377472808391  0.9376871036949055  0.0623221970130956
  0.4374848807680465  0.9375139548723084  0.5625151185921098
  0.9375070433708785  0.4374330623521416  0.0624929560740455
  0.9374863520478485  0.4374901031547012  0.5625204994467978
  0.9375008392987141  0.9375299202431364  0.0624991596591684
  0.9376778078298713  0.9376871086237628  0.5625622549612430
  0.4374182124639034  0.3124080328692145  0.1873814661832682
  0.4371946088257914  0.3110824415168878  0.6890634707709324
  0.4374039296770675  0.8131432418607076  0.1868724595730598
  0.4375274596797212  0.8124845113024008  0.6875135466861693
  0.9373649079304727  0.3124581596177833  0.1875654348513649
  0.9375631827790514  0.3124094518881932  0.6875565677904234
  0.9374604864518261  0.8125840582011179  0.1874512348761570
  0.9376215412101487  0.8126184624402981  0.6876058323784662
  0.3123269285952048  0.4374752962155455  0.1873169761293241
  0.3120677902316160  0.4373560198479680  0.6879322055953665
  0.3124103066384407  0.9376109813964746  0.1874055789114593
  0.3124582628481889  0.9375194038922743  0.6875417381524400
  0.8126659785272565  0.4374674813565349  0.1873340222193889
  0.8126830187848952  0.4374752966360020  0.6876730727031983
  0.8125097791959277  0.9375558294266781  0.1874902204753468
  0.8125944214772431  0.9376109828909023  0.6875896949089650
  0.2499043121200302  0.2499039335880795  0.0000472098481907
  0.2490321398060544  0.2490496258533526  0.4999726615346063
  0.2499056957094012  0.7500943039501564  0.9999262746556070
  0.2496924959438118  0.7503075034155984  0.4999131371626930
  0.7500572258067990  0.2499427756420971  0.0001134880713849
  0.7502790644722737  0.2497209383946739  0.5001194454494424
  0.7500960660187630  0.7500956858144434  0.0000472117826504
  0.7509503793113197  0.7509678624748162  0.4999726868277108
  0.3749768726914198  0.3749711093008514  0.0000137138377809
  0.3728333899362468  0.3729252250981006  0.5001329255905063
  0.3749470846498681  0.8750553379589050  0.9999347692464013
  0.3749481703181843  0.8750501540127047  0.4999980993142543
  0.8749340361999884  0.3749237795167986  0.0001290284804227
  0.8749699068398584  0.3749977207260358  0.5000166303349829
  0.8750259256006316  0.8750343268463894  0.0000107814236969
  0.8753624952163719  0.8754018502552086  0.4999343020862668
  0.3749500408784598  0.2499244882726686  0.1249274298550489
  0.3747288685039791  0.2496276540876252  0.6252711233464723
  0.3749283894942366  0.7501809438625529  0.1247892937798696
  0.3750862908238872  0.7499020449794855  0.6249137116367294
  0.8749255368167894  0.2499834324539094  0.1250744631423544
  0.8750725688333247  0.2499244877865721  0.6250499602047341
  0.8749951835602232  0.7500554742921040  0.1250048157038037
  0.8752107099449304  0.7501809424454535  0.6250716143280641
  0.2499091277312431  0.3749144806024773  0.1248720567870336
  0.2496107336642481  0.3748210435578585  0.6252341283505558
  0.2499398794202250  0.8750652772697265  0.1249504948462459
  0.2499945614962371  0.8750047860857038  0.6250105560280730
  0.7499008994914007  0.3749986252804476  0.1251159689773260
  0.7501697958817672  0.3749386205342162  0.6250987600037448
  0.7500365231687525  0.8750608303013365  0.1250169642518273
  0.7501400345528140  0.8751912656043714  0.6250589621166398
  0.3124762531730099  0.3125008182448141  0.3125008138077447
  0.3122639684722159  0.3123667190862207  0.8128175303357779
  0.3122639679230801  0.8128175306994336  0.3123667177791347
  0.3124872567268682  0.8124908021941337  0.8124908037962513
  0.8121876213967809  0.3127228476023376  0.3127228475967101
  0.8125184969146630  0.3124642180771176  0.8125408289038845
  0.8125184967596795  0.8125408295563190  0.3124642176987322
  0.8125703495547327  0.8125732056803798  0.8125732073409111
  0.4371153897073512  0.4377224631558150  0.3122236805941796
  0.4374214592797117  0.4374219049118864  0.8126551027868913
  0.4374989594977734  0.9375602222999291  0.3124440084940119
  0.4374789768156688  0.9375087632303760  0.8125365352346137
  0.9374564720794325  0.4375067694987749  0.3125028885664989
  0.9375718688360593  0.4374617608514910  0.8126034805357634
  0.9374133859546987  0.9376054594159200  0.3124545912616625
  0.9375355775645247  0.9375365587346067  0.8125441358412502
  0.4371153928112150  0.3122236839507195  0.4377224525704477
  0.4374989572121351  0.3124440074300452  0.9375602240114560
  0.4374214623175376  0.8126550991822654  0.4374219112002748
  0.4374789768752692  0.8125365335733719  0.9375087638601443
  0.9374564716364162  0.3125028882143610  0.4375067706577482
  0.9374133860709435  0.3124545937072440  0.9376054574814248
  0.9375718695212498  0.8126034849191726  0.4374617612142515
  0.9375355777960550  0.8125441342246802  0.9375365607205168
  0.3122071074180042  0.4375012273981653  0.4375012141671135
  0.3124446585927316  0.4374879362386537  0.9375423125981612
  0.3124446601398816  0.9375423124285405  0.4374879378795669
  0.3124099861136074  0.9374957343009243  0.9374957348502804
  0.8124703090139036  0.4376015096277897  0.4376015088279104
  0.8125598004621608  0.4374587030346220  0.9376241028953203
  0.8125598034988926  0.9376241040920590  0.4374587045784111
  0.8125360566166080  0.9375539633444703  0.9375539628510197
  0.2499912506162971  0.2499936570770060  0.2499936536407574
  0.2499036094263118  0.2499103174587844  0.7500963895208344
  0.2499036097286123  0.7500963880770897  0.2499103161875453
  0.2500555367934894  0.7499444619676723  0.7499444638796504
  0.7498552880278808  0.2501447136430812  0.2501447115298490
  0.7500063455210508  0.2499936562792371  0.7500087507863498
  0.7500063442163665  0.7500087509373259  0.2499936554499982