SiVH3                                   
   1.00000000000000     
    21.8654462440000010    0.0000000000000000    0.0000000000000000
     0.0000000000000000   21.8654462440000010    0.0000000000000000
     0.0000000000000000    0.0000000000000000   21.8654462440000010
   Si   H 
   511     3
Direct
 -0.0000007203580316 -0.0000007205868764 -0.0000007199151468
  0.0624970287593412  0.0624970293387301  0.0624970291563897
  0.0000138234513132  0.0000138231676529  0.2499717514408448
  0.0625409959340994  0.0625409958557967  0.3124382957640945
  0.0000151000103702  0.0000150997161836  0.5000247629897433
  0.0624705435832905  0.0624705439671460  0.5625490940070548
 -0.0000456336570150 -0.0000456340854732  0.7500126458617321
  0.0624590153445872  0.0624590155067687  0.8125152120010593
  0.0000138235922920  0.2499717505375521  0.0000138237476192
  0.0625409962567666  0.3124382966561714  0.0625409956949335
  0.0001084360306534  0.2499655202187047  0.2499655195589238
  0.0000259610198951  0.1249907775126252  0.1249907772096623
  0.0625517140892825  0.3124979378935707  0.3124979355478157
  0.0625541797455549  0.1874828961239068  0.1874828948846168
  0.0000188900911307  0.2499586504246506  0.5000063514878852
  0.0000862080785869  0.1249993639810648  0.3749662243145334
  0.0624774639454291  0.3124603335206920  0.5625269060532196
  0.0625514253799302  0.1875237698719414  0.4374935494003161
  0.0000004934698005  0.2499310712531360  0.7500695304363237
 -0.0000280137359487  0.1249196000098724  0.6250633173528996
  0.0624455435290469  0.3124325840248977  0.8125700081069794
  0.0624188683689640  0.1873985037075493  0.6875769237317313
 -0.0000074213899245  0.1249653102245149  0.8750211013804753
  0.0624897233025786  0.1874706447477737  0.9375274865840110
  0.0000150995335013  0.5000247630404406  0.0000150993326707
  0.0624705433100724  0.5625490944585607  0.0624705431524534
  0.0000188917885930  0.5000063529925466  0.2499586487652906
  0.0000862075081042  0.3749662252707762  0.1249993636482348
  0.0624774642588187  0.5625269067702653  0.3124603333034682
  0.0625514256710967  0.4374935516021426  0.1875237672054170
 -0.0000113458301633  0.5000121982694368  0.5000121972710350
  0.0000174312596912  0.3749810880588973  0.3749810857770237
  0.0624684017026366  0.5625238523030361  0.5625238505476349
  0.0624892853919326  0.4375000676793503  0.4375000665599829
 -0.0000464345898226  0.5000089631031674  0.7500260155853551
 -0.0000023812698727  0.3749812576282325  0.6250254989985340
  0.0624019235030478  0.5625216995324399  0.8125373547184174
  0.0624518176058202  0.4374882872586493  0.6875527741354736
 -0.0000071353362601  0.3749642073901726  0.8750616993496008
  0.0623699153445415  0.4374465168613768  0.9376822691538186
 -0.0000456337316930  0.7500126457401504 -0.0000456338787256
  0.0624590149295450  0.8125152115901508  0.0624590156045661
  0.0000004925334135  0.7500695309313875  0.2499310724214626
 -0.0000280137593379  0.6250633179521705  0.1249195999615124
  0.0624455431413674  0.8125700083725040  0.3124325843769701
  0.0624188674278118  0.6875769244176775  0.1873985037923966
 -0.0000464337585642  0.7500260151018177  0.5000089646647209
 -0.0000023801386921  0.6250254993140852  0.3749812577074195
  0.0624019239518095  0.8125373550480489  0.5625216997944342
  0.0624518185195083  0.6875527735368850  0.4374882885896845
 -0.0000847570556470  0.7500212199073040  0.7500212205292778
 -0.0000308878593750  0.6250223384809174  0.6250223403546855
  0.0624464098937173  0.8124994105941888  0.8124994117494614
  0.0624024468517306  0.6875515862384833  0.6875515871584063
 -0.0001056654449141  0.6250434745819554  0.8749465784505293
  0.0624284800981100  0.6875226075346291  0.9374386626186428
 -0.0000074215939515  0.8750211010881629  0.1249653107123972
  0.0624897234341414  0.9375274864518023  0.1874706447322732
 -0.0000071361849753  0.8750616991942727  0.3749642083841074
  0.0623699143466586  0.9376822700318606  0.4374465164755703
 -0.0001056652631431  0.8749465778024121  0.6250434748494313
  0.0624284801352148  0.9374386618020875  0.6875226081305230
 -0.0000329430195337  0.8749959416110209  0.8749959411229878
  0.0624640877235570  0.9375000898242406  0.9375000907230195
  0.2499717503155596  0.0000138236236468  0.0000138238858320
  0.3124382962719228  0.0625409962196014  0.0625409961008110
  0.2499655206912792  0.0001084355519861  0.2499655197220038
  0.1249907773338771  0.0000259611476757  0.1249907770456583
  0.3124979382603905  0.0625517143773643  0.3124979355848074
  0.1874828962751076  0.0625541792356002  0.1874828954069930
  0.2499586504442580  0.0000188896332798  0.5000063519123965
  0.1249993639159360  0.0000862082202147  0.3749662250556069
  0.3124603335020394  0.0624774639295751  0.5625269059418054
  0.1875237697285223  0.0625514252200592  0.4374935493032927
  0.2499310714459139  0.0000004936012822  0.7500695304472884
  0.1249195998862013 -0.0000280137245721  0.6250633170342670
  0.3124325840207214  0.0624455436980764  0.8125700082139845
  0.1873985040548511  0.0624188685465317  0.6875769238964499
  0.1249653103535530 -0.0000074217601195  0.8750211013307717
  0.1874706447539403  0.0624897237626614  0.9375274863092313
  0.2499655205448906  0.2499655205738092  0.0001084344183151
  0.1249907780123416  0.1249907777551656  0.0000259609654817
  0.3124979370163661  0.3124979372679858  0.0625517133082115
  0.1874828962579065  0.1874828963048981  0.0625541784624879
  0.1249875892875579  0.2499665759945100  0.8750519427338747
  0.2499665756990384  0.1249875893235890  0.8750519426855649
  0.1874505316427606  0.3124229804203550  0.9376304158090569
  0.3124229800928660  0.1874505315724491  0.9376304161454450
  0.2499586506491641  0.5000063528007915  0.0000188893480281
  0.1249993647289484  0.3749662247821396  0.0000862072317396
  0.3124603341011369  0.5625269061590303  0.0624774642508551
  0.1875237698304885  0.4374935504966770  0.0625514246338292
  0.1246409245875709  0.5000544266695321  0.8753328514904418
  0.2498644381366463  0.3749346441697495  0.8751873075019145
  0.1874259496863630  0.5625290688424464  0.9375624585823433
  0.3124381877691211  0.4374724579764654  0.9375520255571297
  0.2499310727556276  0.7500695297685267  0.0000004931887894
  0.1249196003614878  0.6250633174585660 -0.0000280136056655
  0.3124325844556871  0.8125700070522888  0.0624455447584889
  0.1873985042139061  0.6875769241205659  0.0624188680493251
  0.1249526178254934  0.7500133753922628  0.8749874380005954
  0.2499332251585154  0.6250679131084435  0.8751107168966250
  0.1874418787883965  0.8125199936100396  0.9374825980555020
  0.3124443109418628  0.6875679678894007  0.9375645200359368
  0.1249653105927879  0.8750211007705364 -0.0000074213154525
  0.1874706446537776  0.9375274860047617  0.0624897238710468
  0.1249875898026401  0.8750519424174346  0.2499665760384097
  0.2499665758069589  0.8750519421613676  0.1249875892243339
  0.1874505306854362  0.9376304169112838  0.3124229796660494
  0.3124229803775048  0.9376304166021752  0.1874505300147083
  0.1246409227460793  0.8753328553250384  0.5000544267204819
  0.2498644368135126  0.8751873097426963  0.3749346438563804
  0.1874259505401687  0.9375624594125653  0.5625290698784664
  0.3124381878494115  0.9375520268206052  0.4374724558666548
  0.1249526178564256  0.8749874364642728  0.7500133761105185
  0.2499332242949111  0.8751107170262618  0.6250679154119471
  0.1874418781158983  0.9374825968713817  0.8125199947318495
  0.3124443104958996  0.9375645192956156  0.6875679704404982
  0.2499484012111493  0.8750012316073891  0.8750012327432162
  0.3124379688956614  0.9374977724955413  0.9374977736196470
  0.5000247633050110  0.0000150990673617  0.0000151001204855
  0.5625490946813375  0.0624705434883046  0.0624705435542679
  0.5000063534091594  0.0000188914544779  0.2499586492309371
  0.3749662255890313  0.0000862077587523  0.1249993636223057
  0.5625269066951997  0.0624774645989547  0.3124603337184024
  0.4374935515630173  0.0625514255607606  0.1875237675668194
  0.5000121982020637 -0.0000113459416066  0.5000121969461913
  0.3749810881966394  0.0000174310315753  0.3749810858643254
  0.5625238520689508  0.0624684020320838  0.5625238503367725
  0.4375000676609808  0.0624892854233038  0.4375000667623073
  0.5000089626804789 -0.0000464343625958  0.7500260156135509
  0.3749812575799212 -0.0000023813349375  0.6250254988409444
  0.5625216995624510  0.0624019237580295  0.8125373545496620
  0.4374882871378694  0.0624518178442477  0.6875527743007864
  0.3749642075781274 -0.0000071353458669  0.8750616998545427
  0.4374465165262308  0.0623699148421295  0.9376822698638209
  0.5000063528331840  0.2499586505619275  0.0000188893337095
  0.3749662253644657  0.1249993645651154  0.0000862076566112
  0.5625269062594290  0.3124603341710072  0.0624774640717593
  0.4374935504901322  0.1875237698864907  0.0625514245438717
  0.3749346440799007  0.2498644383279352  0.8751873073280818
  0.5000544268884053  0.1246409246809118  0.8753328520449124
  0.4374724574990989  0.3124381878042357  0.9375520258072897
  0.5625290689679501  0.1874259496656138  0.9375624588214641
  0.5000121986618954  0.5000121984024316 -0.0000113459289816
  0.3749810871759326  0.3749810873154147  0.0000174306873867
  0.5625238521828360  0.5625238520866734  0.0624684027149665
  0.4375000680828299  0.4375000682916509  0.0624892837669348
  0.3749229351635541  0.4999817639109130  0.8750695004195846
  0.4999817642840816  0.3749229352239034  0.8750694999703734
  0.4374702191303751  0.5624948751052948  0.9375047680791323
  0.5624948754285406  0.4374702192601849  0.9375047682789167
  0.5000089633994214  0.7500260143451757 -0.0000464326998745
  0.3749812591601913  0.6250254969060772 -0.0000023813181033
  0.5625216994843626  0.8125373545200808  0.0624019262698831
  0.4374882878103707  0.6875527722482183  0.0624518189177894
  0.3749476510086689  0.7500875434658717  0.8750989504642097
  0.4999689723961865  0.6249998236043440  0.8749937420483176
  0.4374809200722540  0.8125664587762927  0.9375377056252000
  0.5624945189983765  0.6874791627618572  0.9374761774004988
  0.3749642081083521  0.8750616985661919 -0.0000071343968222
  0.4374465164841054  0.9376822683626825  0.0623699158710670
  0.3749346436515545  0.8751873095318440  0.2498644371085332
  0.5000544267675321  0.8753328534908459  0.1246409280093753
  0.4374724585323977  0.9375520265965831  0.3124381859870681
  0.5625290711496294  0.9375624595448266  0.1874259514776627
  0.3749229345811846  0.8750695022896408  0.4999817654520310
  0.4999817638935761  0.8750695023872191  0.3749229371851954
  0.4374702190976542  0.9375047694195149  0.5624948762565618
  0.5624948771381837  0.9375047702652950  0.4374702181747397
  0.3749476508577899  0.8750989497513822  0.7500875461999936
  0.4999689699050008  0.8749937420522040  0.6249998257260598
  0.4374809198070960  0.9375377041031177  0.8125664615806818
  0.5624945178079739  0.9374761768408186  0.6874791640945500
  0.4999731815296843  0.8751029229057420  0.8751029246060952
  0.5625351182574557  0.9375297080372286  0.9375297087840804
  0.7500126458472678 -0.0000456341236840 -0.0000456337555503
  0.8125152114511285  0.0624590152716502  0.0624590153852238
  0.7500695310939079  0.0000004924943593  0.2499310723449013
  0.6250633180095443 -0.0000280138549697  0.1249196001442276
  0.8125700081385859  0.0624455436209283  0.3124325844841239
  0.6875769247005947  0.0624188674591650  0.1873985043604771
  0.7500260151088928 -0.0000464336328292  0.5000089644324354
  0.6250254991922329 -0.0000023798102535  0.3749812577387561
  0.8125373550670827  0.0624019237364405  0.5625216998531063
  0.6875527733755350  0.0624518185911899  0.4374882883642389
  0.7500212199359122 -0.0000847572692588  0.7500212205488079
  0.6250223387312718 -0.0000308875941072  0.6250223403458206
  0.8124994109871178  0.0624464098352190  0.8124994120123749
  0.6875515863243495  0.0624024467400466  0.6875515873382676
  0.6250434745883506 -0.0001056655347954  0.8749465787348035
  0.6875226080364611  0.0624284804120562  0.9374386626581400
  0.7500695296822176  0.2499310726105747  0.0000004934600572
  0.6250633178730151  0.1249196002784276 -0.0000280136854010
  0.8125700069963508  0.3124325842697230  0.0624455447655669
  0.6875769242667907  0.1873985044585833  0.0624188682457194
  0.6250679132788842  0.2499332253971572  0.8751107169517709
  0.7500133754421349  0.1249526174901264  0.8749874376794958
  0.6875679678802495  0.3124443114260994  0.9375645202693522
  0.8125199937895051  0.1874418785644244  0.9374825975909939
  0.7500260143267155  0.5000089634221559 -0.0000464329290207
  0.6250254972232028  0.3749812590069518 -0.0000023811508902
  0.8125373544946146  0.5625216993604540  0.0624019259657875
  0.6875527724841262  0.4374882875485570  0.0624518188661213
  0.6249998235457359  0.4999689723944205  0.8749937420532866
  0.7500875433735552  0.3749476512992489  0.8750989504174970
  0.6874791628204281  0.5624945189695461  0.9374761777197723
  0.8125664585618078  0.4374809207588171  0.9375377050106259
  0.7500212193503353  0.7500212193590821 -0.0000847545614520
  0.6250223399299742  0.6250223399903237 -0.0000308867495469
  0.8124994105562251  0.8124994106537442  0.0624464104299668
  0.6875515854755972  0.6875515854571553  0.0624024499879649
  0.6249707308953015  0.7498941349593137  0.8748823986087421
  0.7498941345645753  0.6249707312088406  0.8748823984077900
  0.6875167369101773  0.8124101836811239  0.9373798488792090
  0.8124101834512990  0.6875167368615115  0.9373798490944726
  0.6250434743096216  0.8749465775315775 -0.0001056647635388
  0.6875226080540485  0.9374386617021131  0.0624284807458827
  0.6250679150622173  0.8751107170354948  0.2499332277504826
  0.7500133753076310  0.8749874370603512  0.1249526187611428
  0.6875679703046510  0.9375645193193674  0.3124443129196919
  0.8125199944464965  0.9374825969589852  0.1874418792161835
  0.6249998245010439  0.8749937442292898  0.4999689715418852
  0.7500875447967038  0.8750989492561992  0.3749476546284317
  0.6874791634091041  0.9374761777581341  0.5624945199590097
  0.8125664600565140  0.9375377039319556  0.4374809225594360
  0.6249707301544933  0.8748823985557808  0.7498941353298526
  0.7498941339271977  0.8748823982134707  0.6249707318843483
  0.6875167361345622  0.9373798474731152  0.8124101847650259
  0.8124101843095720  0.9373798483485356  0.6875167376683705
  0.7499980888491662  0.8749292956230162  0.8749292963004593
  0.8124952722452170  0.9374537366968653  0.9374537374523397
  0.8750211010461335 -0.0000074214954649  0.1249653109391337
  0.9375274863619555  0.0624897236476870  0.1874706445672641
  0.8750616990958449 -0.0000071360020871  0.3749642081055628
  0.9376822700064766  0.0623699137941813  0.4374465159999281
  0.8749465779540969 -0.0001056653320186  0.6250434746669802
  0.9374386619023453  0.0624284801116079  0.6875226080781837
  0.8749959413172553 -0.0000329428238838  0.8749959410600447
  0.9375000901758594  0.0624640882279115  0.9375000903713355
  0.8750211006326889  0.1249653105186807 -0.0000074212329833
  0.9375274857596892  0.1874706445450882  0.0624897236963922
  0.8750519424547087  0.1249875897620744  0.2499665761461723
  0.8750519423313897  0.2499665754830946  0.1249875894490510
  0.9376304171135407  0.1874505303838814  0.3124229790417519
  0.9376304167187931  0.3124229801605121  0.1874505298114519
  0.8753328549084557  0.1246409235409492  0.5000544272523858
  0.8751873099386024  0.2498644370140089  0.3749346435216641
  0.9375624598056853  0.1874259503590937  0.5625290700165683
  0.9375520270394834  0.3124381877698643  0.4374724558622954
  0.8749874364341625  0.1249526180372827  0.7500133762728776
  0.8751107172629472  0.2499332246795311  0.6250679153966047
  0.9374825967393630  0.1874418781660329  0.8125199946371916
  0.9375645195966542  0.3124443107438162  0.6875679703114880
  0.8750012316091036  0.2499484011669826  0.8750012325421899
  0.9374977724953332  0.3124379691730612  0.9374977733663729
  0.8750616985018773  0.3749642075876967 -0.0000071343125517
  0.9376822689609324  0.4374465164874642  0.0623699154109702
  0.8751873101543133  0.3749346433607482  0.2498644368047391
  0.8753328537975920  0.5000544271031462  0.1246409275659771
  0.9375520269224075  0.4374724587838006  0.3124381851975107
  0.9375624598351673  0.5625290709916089  0.1874259513563923
  0.8750695028897792  0.3749229342005830  0.4999817653654179
  0.8750695032619781  0.4999817636735526  0.3749229364377669
  0.9375047696034599  0.4374702192361516  0.5624948761060778
  0.9375047704050922  0.5624948765532647  0.4374702179994828
  0.8750989498550590  0.3749476510038092  0.7500875463203139
  0.8749937420184578  0.4999689701367582  0.6249998257828462
  0.9375377039297441  0.4374809202156330  0.8125664613802680
  0.9374761767992602  0.5624945176783233  0.6874791638726181
  0.8751029226382558  0.4999731817879221  0.8751029245950870
  0.9375297075518778  0.5625351186720381  0.9375297084720182
  0.8749465777087700  0.6250434741367946 -0.0001056647951792
  0.9374386615510499  0.6875226074403445  0.0624284803938134
  0.8751107174462864  0.6250679152096597  0.2499332277127705
  0.8749874368991757  0.7500133753422891  0.1249526188884894
  0.9375645197861474  0.6875679705886524  0.3124443124327076
  0.9374825969888773  0.8125199945156266  0.1874418793539547
  0.8749937446189644  0.6249998240007361  0.4999689713022072
  0.8750989498331436  0.7500875446330612  0.3749476545189483
  0.9374761777665699  0.6874791634397319  0.5624945200594251
  0.9375377048187784  0.8125664601357717  0.4374809225636412
  0.8748823983810946  0.6249707303593786  0.7498941350065057
  0.8748823986855377  0.7498941345578056  0.6249707319142080
  0.9373798475681855  0.6875167361920698  0.8124101849611752
  0.9373798479909186  0.8124101843146734  0.6875167376254404
  0.8749292960154429  0.7499980884073923  0.8749292970912885
  0.9374537366422635  0.8124952722729444  0.9374537374100156
  0.8749959408099520  0.8749959409071565 -0.0000329424189546
  0.9375000900668969  0.9375000897850782  0.0624640886065612
  0.8750012316820137  0.8750012317230326  0.2499484021771867
  0.9374977726800513  0.9374977727740024  0.3124379697839871
  0.8751029235220668  0.8751029233234171  0.4999731849956696
  0.9375297086126743  0.9375297082774955  0.5625351194862949
  0.8749292961525458  0.8749292962070294  0.7499980880786142
  0.9374537368991700  0.9374537372443535  0.8124952723138105
  0.2500841953971230  0.2500841952931467  0.2500841942554705
  0.1250515257659754  0.1250515255750371  0.2499857954099389
  0.1250515261392246  0.2499857960285525  0.1250515251663699
  0.2499857953891572  0.1250515255199590  0.1250515252853713
  0.3126147090351743  0.3126147094584947  0.3126147065871394
  0.1875525728700379  0.1875525730214027  0.3125224412878071
  0.1875525728776166  0.3125224433042005  0.1875525719331991
  0.3125224426921064  0.1875525734941258  0.1875525722822167
  0.2497825206962382  0.2497825207036382  0.5001041459851869
  0.1249267164384867  0.1249267165579644  0.4999964757692714
  0.1250685909105509  0.2500472027722183  0.3750140177377652
  0.2500472024400301  0.1250685907000213  0.3750140177004912
  0.3121684753288219  0.3121684759206140  0.5626682419390048
  0.1873341018815383  0.1873341015974545  0.5625946927495981
  0.1875752467267495  0.3125545578291038  0.4375562917842572
  0.3125545582149916  0.1875752472444578  0.4375562919229906
  0.2499313009633391  0.2499313010601419  0.7500789776176378
  0.1249686328980092  0.1249686327906388  0.7500584418210934
  0.1248634673014673  0.2498867034386586  0.6250620291984342
  0.2498867033067311  0.1248634674219315  0.6250620297656116
  0.3123408463439650  0.3123408465239361  0.8127620563260842
  0.1874519858644818  0.1874519860186089  0.8125701277876634
  0.1872901396018319  0.3123455251992965  0.6876190911906432
  0.3123455248333236  0.1872901398607217  0.6876190913987785
  0.2497825227281806  0.5001041516290511  0.2497825181337156
  0.1250685909868670  0.3750140192968429  0.2500472003381571
  0.1249267167930276  0.4999964777016146  0.1249267145174320
  0.2500472025777293  0.3750140195561056  0.1250685901690106
  0.3121684765046147  0.5626682475516880  0.3121684735095964
  0.1875752473001119  0.4375562972627055  0.3125545525898336
  0.1873341013261319  0.5625946963592517  0.1873340997947500
  0.3125545581051481  0.4375562961293330  0.1875752448246134
  0.2497883626360018  0.5000941065668388  0.5000941024805113
  0.1249687797916490  0.3749867648890636  0.5000290578015527
  0.1249687798178103  0.5000290587894276  0.3749867631375072
  0.2502001033863050  0.3751515346249034  0.3751515301939023
  0.3122642428920354  0.5625441446950014  0.5625441395256893
  0.1873952337576996  0.4374727988970045  0.5626011105036279
  0.1873952330958094  0.5626011140296703  0.4374727942849740
  0.3126297874061986  0.4377980357798639  0.4377980302421060
  0.2490874600748016  0.5000708713823074  0.7509371998780902
  0.1248617279007175  0.3749606032014852  0.7501027468858625
  0.1249227675101905  0.5000284742861275  0.6250834921172449
  0.2497229723113493  0.3748744281842760  0.6251964535571761
  0.3123880344499445  0.5625426996931652  0.8126665032798497
  0.1869190832905935  0.4374055213205305  0.8130835197298182
  0.1873307602114162  0.5625520213200098  0.6876365934948137
  0.3110493200697017  0.4373072606237097  0.6889094710192939
  0.2499313015274199  0.7500789793540583  0.2499313002477645
  0.1248634672056827  0.6250620318786096  0.2498867022560419
  0.1249686328744195  0.7500584412462468  0.1249686325313141
  0.2498867050113608  0.6250620315890026  0.1248634670758135
  0.3123408456536942  0.8127620590170114  0.3123408452445847
  0.1872901390054363  0.6876190939935680  0.3123455236130916
  0.1874519860549441  0.8125701273446194  0.1874519853468128
  0.3123455260789096  0.6876190924863878  0.1872901403754299
  0.2490874571960622  0.7509372089763526  0.5000708735202291
  0.1249227692554073  0.6250834944391553  0.5000284746178405
  0.1248617271530235  0.7501027480652749  0.3749606048141820
  0.2497229727987695  0.6251964588619797  0.3748744266670461
  0.3123880355014216  0.8126665049106060  0.5625427038444669
  0.1873307614387879  0.6876365958412929  0.5625520213964560
  0.1869190805754163  0.8130835238411458  0.4374055207242832
  0.3110493144514566  0.6889094809469007  0.4373072587973956
  0.2499588018497016  0.7500234110953290  0.7500234131443684
  0.1248780629569890  0.6250695776130991  0.7500766639779899
  0.1248780616768816  0.7500766637157391  0.6250695786902438
  0.2498488276094701  0.6250699751240389  0.6250699750301509
  0.3124739488297629  0.8125193383023337  0.8125193403899019
  0.1874704253324433  0.6875151115577486  0.8125235905640430
  0.1874704254161713  0.8125235884703295  0.6875151134706797
  0.3124743149534840  0.6875232424822871  0.6875232468448659
  0.5001041525534570  0.2497825234221177  0.2497825194231293
  0.3750140198057550  0.1250685913398795  0.2500472003746921
  0.3750140198742641  0.2500472029905934  0.1250685900226706
  0.4999964778377164  0.1249267175495643  0.1249267153254226
  0.5626682467852537  0.3121684781929180  0.3121684751300145
  0.4375562973243637  0.1875752476747906  0.3125545526690108
  0.4375562960389959  0.3125545583065426  0.1875752450543071
  0.5625946959416520  0.1873341018376383  0.1873341003582884
  0.5000941067822676  0.2497883631616883  0.5000941022610520
  0.3749867646499100  0.1249687801770769  0.5000290580846711
  0.3751515351372454  0.2502001032547154  0.3751515308595569
  0.5000290590077604  0.1249687805542296  0.3749867632221063
  0.5625441447874492  0.3122642440837803  0.5625441397592879
  0.4374727987770433  0.1873952344293834  0.5626011103139917
  0.4377980361825879  0.3126297882445405  0.4377980300624851
  0.5626011135172072  0.1873952340337639  0.4374727939561646
  0.5000708716083883  0.2490874596908336  0.7509372004411283
  0.3749606029854041  0.1248617282242084  0.7501027469999068
  0.3748744281249899  0.2497229719561420  0.6251964536596585
  0.5000284745382215  0.1249227675536303  0.6250834922055515
  0.5625426997326893  0.3123880347226118  0.8126665030922082
  0.4374055214761610  0.1869190829107691  0.8130835202645369
  0.4373072603516522  0.3110493201254690  0.6889094712588045
  0.5625520210208740  0.1873307607321864  0.6876365934157643
  0.5000941080165551  0.5000941079923029  0.2497883644645507
  0.3751515340995264  0.3751515344501314  0.2502001033094709
  0.3749867666900336  0.5000290599884704  0.1249687792984119
  0.5000290599137839  0.3749867669231142  0.1249687792696507
  0.5625441434778425  0.5625441428555131  0.3122642528978826
  0.4377980351088903  0.4377980361698600  0.3126297836344657
  0.4374727992546150  0.5626011128609595  0.1873952335821429
  0.5626011130397603  0.4374727989122544  0.1873952332995028
  0.4998764645235659  0.4998764643886284  0.7501200313150589
  0.3747917905519210  0.3747917905353128  0.7503500716559814
  0.3729552661714742  0.4999913033859110  0.6271042484640557
  0.4999913028627921  0.3729552659483192  0.6271042491661687
  0.5624213912794468  0.5624213915393700  0.8125029348600384
  0.4373916539061949  0.4373916538469462  0.8126406853356798
  0.4372092840226307  0.5623816950990665  0.6878210018156571
  0.5623816951716822  0.4372092839335476  0.6878210019227697
  0.5000708737110797  0.7509372064697150  0.2490874684761274
  0.3748744316030154  0.6251964576008756  0.2497229732357555
  0.3749606055877738  0.7501027467958165  0.1248617292430547
  0.5000284765999790  0.6250834950587315  0.1249227699105308
  0.5625427037599614  0.8126665055192452  0.3123880408713874
  0.4373072609884837  0.6889094742666902  0.3110493241654000
  0.4374055225659765  0.8130835197441530  0.1869190853320243
  0.5625520194146371  0.6876365960538738  0.1873307666239317
  0.4998764652621017  0.7501200361523253  0.4998764679053526
  0.3729552620995376  0.6271042624467561  0.4999913015222703
  0.3747917899078749  0.7503500767851722  0.3747917913979185
  0.4999913039078598  0.6271042575383285  0.3729552743443096
  0.5624213918346069  0.8125029384434517  0.5624213918367488
  0.4372092838964242  0.6878210056147990  0.5623816975105134
  0.4373916540223312  0.8126406869558788  0.4373916563477849
  0.5623816977445673  0.6878210060833037  0.4372092886967276
  0.4998933474495963  0.7502165010075517  0.7502165042126980
  0.3749335926615943  0.6251156015441605  0.7501841315845166
  0.3749335912322526  0.7501841304505369  0.6251156059880605
  0.4993866966364458  0.6247682058455724  0.6247682040627835
  0.5624955286171877  0.8126291402206044  0.8126291409207905
  0.4374370091926328  0.6876241411799542  0.8126341947987616
  0.4374370089544654  0.8126341924699995  0.6876241458349291
  0.5620346951084016  0.6874960135602209  0.6874960124016913
  0.7500789796559767  0.2499313013435105  0.2499312999673680
  0.6250620320959541  0.1248634673150169  0.2498867022898483
  0.6250620317109526  0.2498867049453699  0.1248634669068260
  0.7500584416566415  0.1249686325666211  0.1249686328040231
  0.8127620599999189  0.3123408457594904  0.3123408449878711
  0.6876190940237801  0.1872901394362382  0.3123455241539043
  0.6876190924713782  0.3123455267926825  0.1872901400665554
  0.8125701273371078  0.1874519854219816  0.1874519850072198
  0.7509372096170382  0.2490874572203956  0.5000708735067120
  0.6250834942525904  0.1249227697479676  0.5000284743697454
  0.6251964588483165  0.2497229727731297  0.3748744269319230
  0.7501027482053142  0.1248617269974027  0.3749606044047458
  0.8126665050036334  0.3123880355591488  0.5625427037402904
  0.6876365956257572  0.1873307615375352  0.5625520213022001
  0.6889094804476206  0.3110493156623139  0.4373072595675647
  0.8130835239497031  0.1869190803692891  0.4374055207440020
  0.7500234112042344  0.2499588015286378  0.7500234132082472
  0.6250695782475124  0.1248780626877126  0.7500766643629964
  0.6250699748496666  0.2498488279799565  0.6250699745038433
  0.7500766640839317  0.1248780619557958  0.6250695788850654
  0.8125193380123857  0.3124739483890822  0.8125193398787441
  0.6875151118702519  0.1874704251232799  0.8125235906335777
  0.6875232424676565  0.3124743155317158  0.6875232466466910
  0.8125235882756406  0.1874704252423458  0.6875151136422668
  0.7509372073938092  0.5000708733708545  0.2490874669846474
  0.6251964576597284  0.3748744309941424  0.2497229726744759
  0.6250834948934176  0.5000284763549930  0.1249227702311384
  0.7501027473181713  0.3749606052076029  0.1248617288460200
  0.8126665061046405  0.5625427038537151  0.3123880402990358
  0.6889094756539191  0.4373072611869392  0.3110493229396634
  0.6876365962668716  0.5625520200762125  0.1873307666798013
  0.8130835207492535  0.4374055225877861  0.1869190846643441
  0.7501200364235868  0.4998764648746808  0.4998764675075534
  0.6271042631111803  0.3729552622981590  0.4999913023379619
  0.6271042599069616  0.4999913038110103  0.3729552735136004
  0.7503500784536828  0.3747917889119290  0.3747917906463806
  0.8125029387206628  0.5624213914940921  0.5624213915593433
  0.6878210064609352  0.4372092839852758  0.5623816974291217
  0.6878210074497383  0.5623816977506156  0.4372092884660578
  0.8126406877129240  0.4373916530071358  0.4373916553361504
  0.7502165011333549  0.4998933477602073  0.7502165042541039
  0.6251156018307087  0.3749335929018725  0.7501841312328839
  0.6247682065360837  0.4993866969241371  0.6247682042888811
  0.7501841309982716  0.3749335913876128  0.6251156063195666
  0.8126291403891993  0.5624955289845963  0.8126291410446483
  0.6876241407600797  0.4374370095864141  0.8126341945481423
  0.6874960138721985  0.5620346949989928  0.6874960129983213
  0.8126341924539976  0.4374370092075302  0.6876241457249639
  0.7500234121279447  0.7500234119741994  0.2499588037737549
  0.6250699747641522  0.6250699740609315  0.2498488329887988
  0.6250695769723169  0.7500766640064223  0.1248780657220561
  0.7500766641918604  0.6250695769878430  0.1248780658315248
  0.8125193391177897  0.8125193389277030  0.3124739502480912
  0.6875232447647752  0.6875232450394261  0.3124743184443555