GaN                                     
    1.000000000000000     
     3.1890000000000001    0.0000000000000000    0.0000000000000000
    -1.5945000000000000    2.7617550126685746    0.0000000000000000
     0.0000000000000000    0.0000000000000000    5.1849999999999996
   Ga   N 
     2     2
Direct
  0.3333333333333357  0.6666666666666643 -0.0009389516149730
  0.6666666666666643  0.3333333333333357  0.4990610483850270
  0.3333333333333357  0.6666666666666643  0.3759389516149730
  0.6666666666666643  0.3333333333333357  0.8759389516149730
 
  0.00000000E+00  0.00000000E+00  0.00000000E+00
  0.00000000E+00  0.00000000E+00  0.00000000E+00
  0.00000000E+00  0.00000000E+00  0.00000000E+00
  0.00000000E+00  0.00000000E+00  0.00000000E+00
