GaN                                     
    1.000000000000000     
     3.1944925053946682   -0.0112032874558170    0.0000006257675783
    -1.6069480210147662    2.7810480155005624   -0.0000009682293552
     0.0000009993571813   -0.0000012006501869    5.1994047495646472
   Ga   N 
     2     2
Direct
  0.3327888263523976  0.6664167565642892 -0.0009674585695379
  0.6672110499624713  0.3335830609101033  0.4990325960658574
  0.3358197509702499  0.6677726257559228  0.3759674255849031
  0.6641803727148812  0.3322275567696849  0.8759674369187770
 
  0.00000000E+00  0.00000000E+00  0.00000000E+00
  0.00000000E+00  0.00000000E+00  0.00000000E+00
  0.00000000E+00  0.00000000E+00  0.00000000E+00
  0.00000000E+00  0.00000000E+00  0.00000000E+00
