SiVH3 a=5.46836113565
1.0
  21.8734445426  0.0000000000  0.0000000000
   0.0000000000 21.8734445426  0.0000000000
   0.0000000000  0.0000000000 21.8734445426
   Si    H
  511    3
Direct
   0.062500000   0.062500000   0.062500000
   0.187500000   0.187500000   0.062500000
   0.187500000   0.062500000   0.187500000
   0.062500000   0.187500000   0.187500000
   0.000000000   0.000000000   0.000000000
   0.125000000   0.125000000   0.000000000
   0.125000000   0.000000000   0.125000000
   0.000000000   0.125000000   0.125000000
   0.062500000   0.062500000   0.312500000
   0.187500000   0.187500000   0.312500000
   0.187500000   0.062500000   0.437500000
   0.062500000   0.187500000   0.437500000
   0.000000000   0.000000000   0.250000000
   0.125000000   0.125000000   0.250000000
   0.125000000   0.000000000   0.375000000
   0.000000000   0.125000000   0.375000000
   0.062500000   0.062500000   0.562500000
   0.187500000   0.187500000   0.562500000
   0.187500000   0.062500000   0.687500000
   0.062500000   0.187500000   0.687500000
   0.000000000   0.000000000   0.500000000
   0.125000000   0.125000000   0.500000000
   0.125000000   0.000000000   0.625000000
   0.000000000   0.125000000   0.625000000
   0.062500000   0.062500000   0.812500000
   0.187500000   0.187500000   0.812500000
   0.187500000   0.062500000   0.937500000
   0.062500000   0.187500000   0.937500000
   0.000000000   0.000000000   0.750000000
   0.125000000   0.125000000   0.750000000
   0.125000000   0.000000000   0.875000000
   0.000000000   0.125000000   0.875000000
   0.062500000   0.312500000   0.062500000
   0.187500000   0.437500000   0.062500000
   0.187500000   0.312500000   0.187500000
   0.062500000   0.437500000   0.187500000
   0.000000000   0.250000000   0.000000000
   0.125000000   0.375000000   0.000000000
   0.125000000   0.250000000   0.125000000
   0.000000000   0.375000000   0.125000000
   0.062500000   0.312500000   0.312500000
   0.187500000   0.437500000   0.312500000
   0.187500000   0.312500000   0.437500000
   0.062500000   0.437500000   0.437500000
   0.000000000   0.250000000   0.250000000
   0.125000000   0.375000000   0.250000000
   0.125000000   0.250000000   0.375000000
   0.000000000   0.375000000   0.375000000
   0.062500000   0.312500000   0.562500000
   0.187500000   0.437500000   0.562500000
   0.187500000   0.312500000   0.687500000
   0.062500000   0.437500000   0.687500000
   0.000000000   0.250000000   0.500000000
   0.125000000   0.375000000   0.500000000
   0.125000000   0.250000000   0.625000000
   0.000000000   0.375000000   0.625000000
   0.062500000   0.312500000   0.812500000
   0.187500000   0.437500000   0.812500000
   0.187500000   0.312500000   0.937500000
   0.062500000   0.437500000   0.937500000
   0.000000000   0.250000000   0.750000000
   0.125000000   0.375000000   0.750000000
   0.125000000   0.250000000   0.875000000
   0.000000000   0.375000000   0.875000000
   0.062500000   0.562500000   0.062500000
   0.187500000   0.687500000   0.062500000
   0.187500000   0.562500000   0.187500000
   0.062500000   0.687500000   0.187500000
   0.000000000   0.500000000   0.000000000
   0.125000000   0.625000000   0.000000000
   0.125000000   0.500000000   0.125000000
   0.000000000   0.625000000   0.125000000
   0.062500000   0.562500000   0.312500000
   0.187500000   0.687500000   0.312500000
   0.187500000   0.562500000   0.437500000
   0.062500000   0.687500000   0.437500000
   0.000000000   0.500000000   0.250000000
   0.125000000   0.625000000   0.250000000
   0.125000000   0.500000000   0.375000000
   0.000000000   0.625000000   0.375000000
   0.062500000   0.562500000   0.562500000
   0.187500000   0.687500000   0.562500000
   0.187500000   0.562500000   0.687500000
   0.062500000   0.687500000   0.687500000
   0.000000000   0.500000000   0.500000000
   0.125000000   0.625000000   0.500000000
   0.125000000   0.500000000   0.625000000
   0.000000000   0.625000000   0.625000000
   0.062500000   0.562500000   0.812500000
   0.187500000   0.687500000   0.812500000
   0.187500000   0.562500000   0.937500000
   0.062500000   0.687500000   0.937500000
   0.000000000   0.500000000   0.750000000
   0.125000000   0.625000000   0.750000000
   0.125000000   0.500000000   0.875000000
   0.000000000   0.625000000   0.875000000
   0.062500000   0.812500000   0.062500000
   0.187500000   0.937500000   0.062500000
   0.187500000   0.812500000   0.187500000
   0.062500000   0.937500000   0.187500000
   0.000000000   0.750000000   0.000000000
   0.125000000   0.875000000   0.000000000
   0.125000000   0.750000000   0.125000000
   0.000000000   0.875000000   0.125000000
   0.062500000   0.812500000   0.312500000
   0.187500000   0.937500000   0.312500000
   0.187500000   0.812500000   0.437500000
   0.062500000   0.937500000   0.437500000
   0.000000000   0.750000000   0.250000000
   0.125000000   0.875000000   0.250000000
   0.125000000   0.750000000   0.375000000
   0.000000000   0.875000000   0.375000000
   0.062500000   0.812500000   0.562500000
   0.187500000   0.937500000   0.562500000
   0.187500000   0.812500000   0.687500000
   0.062500000   0.937500000   0.687500000
   0.000000000   0.750000000   0.500000000
   0.125000000   0.875000000   0.500000000
   0.125000000   0.750000000   0.625000000
   0.000000000   0.875000000   0.625000000
   0.062500000   0.812500000   0.812500000
   0.187500000   0.937500000   0.812500000
   0.187500000   0.812500000   0.937500000
   0.062500000   0.937500000   0.937500000
   0.000000000   0.750000000   0.750000000
   0.125000000   0.875000000   0.750000000
   0.125000000   0.750000000   0.875000000
   0.000000000   0.875000000   0.875000000
   0.312500000   0.062500000   0.062500000
   0.437500000   0.187500000   0.062500000
   0.437500000   0.062500000   0.187500000
   0.312500000   0.187500000   0.187500000
   0.250000000   0.000000000   0.000000000
   0.375000000   0.125000000   0.000000000
   0.375000000   0.000000000   0.125000000
   0.250000000   0.125000000   0.125000000
   0.312500000   0.062500000   0.312500000
   0.437500000   0.187500000   0.312500000
   0.437500000   0.062500000   0.437500000
   0.312500000   0.187500000   0.437500000
   0.250000000   0.000000000   0.250000000
   0.375000000   0.125000000   0.250000000
   0.375000000   0.000000000   0.375000000
   0.250000000   0.125000000   0.375000000
   0.312500000   0.062500000   0.562500000
   0.437500000   0.187500000   0.562500000
   0.437500000   0.062500000   0.687500000
   0.312500000   0.187500000   0.687500000
   0.250000000   0.000000000   0.500000000
   0.375000000   0.125000000   0.500000000
   0.375000000   0.000000000   0.625000000
   0.250000000   0.125000000   0.625000000
   0.312500000   0.062500000   0.812500000
   0.437500000   0.187500000   0.812500000
   0.437500000   0.062500000   0.937500000
   0.312500000   0.187500000   0.937500000
   0.250000000   0.000000000   0.750000000
   0.375000000   0.125000000   0.750000000
   0.375000000   0.000000000   0.875000000
   0.250000000   0.125000000   0.875000000
   0.312500000   0.312500000   0.062500000
   0.437500000   0.437500000   0.062500000
   0.437500000   0.312500000   0.187500000
   0.312500000   0.437500000   0.187500000
   0.250000000   0.250000000   0.000000000
   0.375000000   0.375000000   0.000000000
   0.375000000   0.250000000   0.125000000
   0.250000000   0.375000000   0.125000000
   0.312500000   0.312500000   0.812500000
   0.437500000   0.437500000   0.812500000
   0.437500000   0.312500000   0.937500000
   0.312500000   0.437500000   0.937500000
   0.250000000   0.250000000   0.750000000
   0.375000000   0.375000000   0.750000000
   0.375000000   0.250000000   0.875000000
   0.250000000   0.375000000   0.875000000
   0.312500000   0.562500000   0.062500000
   0.437500000   0.687500000   0.062500000
   0.437500000   0.562500000   0.187500000
   0.312500000   0.687500000   0.187500000
   0.250000000   0.500000000   0.000000000
   0.375000000   0.625000000   0.000000000
   0.375000000   0.500000000   0.125000000
   0.250000000   0.625000000   0.125000000
   0.312500000   0.562500000   0.812500000
   0.437500000   0.687500000   0.812500000
   0.437500000   0.562500000   0.937500000
   0.312500000   0.687500000   0.937500000
   0.250000000   0.500000000   0.750000000
   0.375000000   0.625000000   0.750000000
   0.375000000   0.500000000   0.875000000
   0.250000000   0.625000000   0.875000000
   0.312500000   0.812500000   0.062500000
   0.437500000   0.937500000   0.062500000
   0.437500000   0.812500000   0.187500000
   0.312500000   0.937500000   0.187500000
   0.250000000   0.750000000   0.000000000
   0.375000000   0.875000000   0.000000000
   0.375000000   0.750000000   0.125000000
   0.250000000   0.875000000   0.125000000
   0.312500000   0.812500000   0.312500000
   0.437500000   0.937500000   0.312500000
   0.437500000   0.812500000   0.437500000
   0.312500000   0.937500000   0.437500000
   0.250000000   0.750000000   0.250000000
   0.375000000   0.875000000   0.250000000
   0.375000000   0.750000000   0.375000000
   0.250000000   0.875000000   0.375000000
   0.312500000   0.812500000   0.562500000
   0.437500000   0.937500000   0.562500000
   0.437500000   0.812500000   0.687500000
   0.312500000   0.937500000   0.687500000
   0.250000000   0.750000000   0.500000000
   0.375000000   0.875000000   0.500000000
   0.375000000   0.750000000   0.625000000
   0.250000000   0.875000000   0.625000000
   0.312500000   0.812500000   0.812500000
   0.437500000   0.937500000   0.812500000
   0.437500000   0.812500000   0.937500000
   0.312500000   0.937500000   0.937500000
   0.250000000   0.750000000   0.750000000
   0.375000000   0.875000000   0.750000000
   0.375000000   0.750000000   0.875000000
   0.250000000   0.875000000   0.875000000
   0.562500000   0.062500000   0.062500000
   0.687500000   0.187500000   0.062500000
   0.687500000   0.062500000   0.187500000
   0.562500000   0.187500000   0.187500000
   0.500000000   0.000000000   0.000000000
   0.625000000   0.125000000   0.000000000
   0.625000000   0.000000000   0.125000000
   0.500000000   0.125000000   0.125000000
   0.562500000   0.062500000   0.312500000
   0.687500000   0.187500000   0.312500000
   0.687500000   0.062500000   0.437500000
   0.562500000   0.187500000   0.437500000
   0.500000000   0.000000000   0.250000000
   0.625000000   0.125000000   0.250000000
   0.625000000   0.000000000   0.375000000
   0.500000000   0.125000000   0.375000000
   0.562500000   0.062500000   0.562500000
   0.687500000   0.187500000   0.562500000
   0.687500000   0.062500000   0.687500000
   0.562500000   0.187500000   0.687500000
   0.500000000   0.000000000   0.500000000
   0.625000000   0.125000000   0.500000000
   0.625000000   0.000000000   0.625000000
   0.500000000   0.125000000   0.625000000
   0.562500000   0.062500000   0.812500000
   0.687500000   0.187500000   0.812500000
   0.687500000   0.062500000   0.937500000
   0.562500000   0.187500000   0.937500000
   0.500000000   0.000000000   0.750000000
   0.625000000   0.125000000   0.750000000
   0.625000000   0.000000000   0.875000000
   0.500000000   0.125000000   0.875000000
   0.562500000   0.312500000   0.062500000
   0.687500000   0.437500000   0.062500000
   0.687500000   0.312500000   0.187500000
   0.562500000   0.437500000   0.187500000
   0.500000000   0.250000000   0.000000000
   0.625000000   0.375000000   0.000000000
   0.625000000   0.250000000   0.125000000
   0.500000000   0.375000000   0.125000000
   0.562500000   0.312500000   0.812500000
   0.687500000   0.437500000   0.812500000
   0.687500000   0.312500000   0.937500000
   0.562500000   0.437500000   0.937500000
   0.500000000   0.250000000   0.750000000
   0.625000000   0.375000000   0.750000000
   0.625000000   0.250000000   0.875000000
   0.500000000   0.375000000   0.875000000
   0.562500000   0.562500000   0.062500000
   0.687500000   0.687500000   0.062500000
   0.687500000   0.562500000   0.187500000
   0.562500000   0.687500000   0.187500000
   0.500000000   0.500000000   0.000000000
   0.625000000   0.625000000   0.000000000
   0.625000000   0.500000000   0.125000000
   0.500000000   0.625000000   0.125000000
   0.562500000   0.562500000   0.812500000
   0.687500000   0.687500000   0.812500000
   0.687500000   0.562500000   0.937500000
   0.562500000   0.687500000   0.937500000
   0.500000000   0.500000000   0.750000000
   0.625000000   0.625000000   0.750000000
   0.625000000   0.500000000   0.875000000
   0.500000000   0.625000000   0.875000000
   0.562500000   0.812500000   0.062500000
   0.687500000   0.937500000   0.062500000
   0.687500000   0.812500000   0.187500000
   0.562500000   0.937500000   0.187500000
   0.500000000   0.750000000   0.000000000
   0.625000000   0.875000000   0.000000000
   0.625000000   0.750000000   0.125000000
   0.500000000   0.875000000   0.125000000
   0.562500000   0.812500000   0.312500000
   0.687500000   0.937500000   0.312500000
   0.687500000   0.812500000   0.437500000
   0.562500000   0.937500000   0.437500000
   0.500000000   0.750000000   0.250000000
   0.625000000   0.875000000   0.250000000
   0.625000000   0.750000000   0.375000000
   0.500000000   0.875000000   0.375000000
   0.562500000   0.812500000   0.562500000
   0.687500000   0.937500000   0.562500000
   0.687500000   0.812500000   0.687500000
   0.562500000   0.937500000   0.687500000
   0.500000000   0.750000000   0.500000000
   0.625000000   0.875000000   0.500000000
   0.625000000   0.750000000   0.625000000
   0.500000000   0.875000000   0.625000000
   0.562500000   0.812500000   0.812500000
   0.687500000   0.937500000   0.812500000
   0.687500000   0.812500000   0.937500000
   0.562500000   0.937500000   0.937500000
   0.500000000   0.750000000   0.750000000
   0.625000000   0.875000000   0.750000000
   0.625000000   0.750000000   0.875000000
   0.500000000   0.875000000   0.875000000
   0.812500000   0.062500000   0.062500000
   0.937500000   0.187500000   0.062500000
   0.937500000   0.062500000   0.187500000
   0.812500000   0.187500000   0.187500000
   0.750000000   0.000000000   0.000000000
   0.875000000   0.125000000   0.000000000
   0.875000000   0.000000000   0.125000000
   0.750000000   0.125000000   0.125000000
   0.812500000   0.062500000   0.312500000
   0.937500000   0.187500000   0.312500000
   0.937500000   0.062500000   0.437500000
   0.812500000   0.187500000   0.437500000
   0.750000000   0.000000000   0.250000000
   0.875000000   0.125000000   0.250000000
   0.875000000   0.000000000   0.375000000
   0.750000000   0.125000000   0.375000000
   0.812500000   0.062500000   0.562500000
   0.937500000   0.187500000   0.562500000
   0.937500000   0.062500000   0.687500000
   0.812500000   0.187500000   0.687500000
   0.750000000   0.000000000   0.500000000
   0.875000000   0.125000000   0.500000000
   0.875000000   0.000000000   0.625000000
   0.750000000   0.125000000   0.625000000
   0.812500000   0.062500000   0.812500000
   0.937500000   0.187500000   0.812500000
   0.937500000   0.062500000   0.937500000
   0.812500000   0.187500000   0.937500000
   0.750000000   0.000000000   0.750000000
   0.875000000   0.125000000   0.750000000
   0.875000000   0.000000000   0.875000000
   0.750000000   0.125000000   0.875000000
   0.812500000   0.312500000   0.062500000
   0.937500000   0.437500000   0.062500000
   0.937500000   0.312500000   0.187500000
   0.812500000   0.437500000   0.187500000
   0.750000000   0.250000000   0.000000000
   0.875000000   0.375000000   0.000000000
   0.875000000   0.250000000   0.125000000
   0.750000000   0.375000000   0.125000000
   0.812500000   0.312500000   0.312500000
   0.937500000   0.437500000   0.312500000
   0.937500000   0.312500000   0.437500000
   0.812500000   0.437500000   0.437500000
   0.750000000   0.250000000   0.250000000
   0.875000000   0.375000000   0.250000000
   0.875000000   0.250000000   0.375000000
   0.750000000   0.375000000   0.375000000
   0.812500000   0.312500000   0.562500000
   0.937500000   0.437500000   0.562500000
   0.937500000   0.312500000   0.687500000
   0.812500000   0.437500000   0.687500000
   0.750000000   0.250000000   0.500000000
   0.875000000   0.375000000   0.500000000
   0.875000000   0.250000000   0.625000000
   0.750000000   0.375000000   0.625000000
   0.812500000   0.312500000   0.812500000
   0.937500000   0.437500000   0.812500000
   0.937500000   0.312500000   0.937500000
   0.812500000   0.437500000   0.937500000
   0.750000000   0.250000000   0.750000000
   0.875000000   0.375000000   0.750000000
   0.875000000   0.250000000   0.875000000
   0.750000000   0.375000000   0.875000000
   0.812500000   0.562500000   0.062500000
   0.937500000   0.687500000   0.062500000
   0.937500000   0.562500000   0.187500000
   0.812500000   0.687500000   0.187500000
   0.750000000   0.500000000   0.000000000
   0.875000000   0.625000000   0.000000000
   0.875000000   0.500000000   0.125000000
   0.750000000   0.625000000   0.125000000
   0.812500000   0.562500000   0.312500000
   0.937500000   0.687500000   0.312500000
   0.937500000   0.562500000   0.437500000
   0.812500000   0.687500000   0.437500000
   0.750000000   0.500000000   0.250000000
   0.875000000   0.625000000   0.250000000
   0.875000000   0.500000000   0.375000000
   0.750000000   0.625000000   0.375000000
   0.812500000   0.562500000   0.562500000
   0.937500000   0.687500000   0.562500000
   0.937500000   0.562500000   0.687500000
   0.812500000   0.687500000   0.687500000
   0.750000000   0.500000000   0.500000000
   0.875000000   0.625000000   0.500000000
   0.875000000   0.500000000   0.625000000
   0.750000000   0.625000000   0.625000000
   0.812500000   0.562500000   0.812500000
   0.937500000   0.687500000   0.812500000
   0.937500000   0.562500000   0.937500000
   0.812500000   0.687500000   0.937500000
   0.750000000   0.500000000   0.750000000
   0.875000000   0.625000000   0.750000000
   0.875000000   0.500000000   0.875000000
   0.750000000   0.625000000   0.875000000
   0.812500000   0.812500000   0.062500000
   0.937500000   0.937500000   0.062500000
   0.937500000   0.812500000   0.187500000
   0.812500000   0.937500000   0.187500000
   0.750000000   0.750000000   0.000000000
   0.875000000   0.875000000   0.000000000
   0.875000000   0.750000000   0.125000000
   0.750000000   0.875000000   0.125000000
   0.812500000   0.812500000   0.312500000
   0.937500000   0.937500000   0.312500000
   0.937500000   0.812500000   0.437500000
   0.812500000   0.937500000   0.437500000
   0.750000000   0.750000000   0.250000000
   0.875000000   0.875000000   0.250000000
   0.875000000   0.750000000   0.375000000
   0.750000000   0.875000000   0.375000000
   0.812500000   0.812500000   0.562500000
   0.937500000   0.937500000   0.562500000
   0.937500000   0.812500000   0.687500000
   0.812500000   0.937500000   0.687500000
   0.750000000   0.750000000   0.500000000
   0.875000000   0.875000000   0.500000000
   0.875000000   0.750000000   0.625000000
   0.750000000   0.875000000   0.625000000
   0.812500000   0.812500000   0.812500000
   0.937500000   0.937500000   0.812500000
   0.937500000   0.812500000   0.937500000
   0.812500000   0.937500000   0.937500000
   0.750000000   0.750000000   0.750000000
   0.875000000   0.875000000   0.750000000
   0.875000000   0.750000000   0.875000000
   0.750000000   0.875000000   0.875000000
   0.312099173   0.311932140   0.312181136
   0.437387726   0.437220916   0.312507764
   0.437384265   0.312262258   0.437474723
   0.312423175   0.437225361   0.437464606
   0.249491370   0.249327575   0.249574922
   0.374742589   0.374568010   0.250153167
   0.374737063   0.249906149   0.374824996
   0.250070017   0.374573771   0.374817087
   0.312211516   0.312045583   0.562491651
   0.433955105   0.433819109   0.567824279
   0.437089204   0.311272480   0.688272934
   0.311420290   0.436914389   0.688301787
   0.249839638   0.249644949   0.500051546
   0.374612421   0.374457777   0.499969646
   0.374631167   0.249494689   0.625041734
   0.249660581   0.374459950   0.625050945
   0.312201031   0.562247525   0.312285388
   0.437080233   0.688053697   0.311501960
   0.433980015   0.567565245   0.434024121
   0.311447612   0.688020717   0.437173146
   0.249810663   0.499802959   0.249910996
   0.374623560   0.624804631   0.249740950
   0.374607435   0.499723848   0.374683792
   0.249660829   0.624798476   0.374714293
   0.311962439   0.561865331   0.562119962
   0.436878857   0.687237519   0.562193567
   0.436868542   0.561947058   0.687492827
   0.311828449   0.686755526   0.686994796
   0.249566472   0.499443895   0.499693128
   0.372996035   0.626186002   0.499831762
   0.372957970   0.499579242   0.626474795
   0.249221983   0.624194760   0.624437478
   0.562406389   0.312052334   0.312298763
   0.688191179   0.436923440   0.311521899
   0.688223247   0.311245490   0.437161352
   0.567750882   0.433789230   0.434075471
   0.499969465   0.249671760   0.249901752
   0.624958854   0.374467087   0.249745123
   0.624963885   0.249493529   0.374707658
   0.499885772   0.374457808   0.374711341
   0.562038844   0.311794146   0.562115364
   0.687410553   0.436702169   0.562192373
   0.686913183   0.311666804   0.687003741
   0.562108830   0.436712184   0.687487567
   0.499610494   0.249401278   0.499692182
   0.626399512   0.372782973   0.499827108
   0.624357736   0.249056454   0.624445514
   0.499749678   0.372820906   0.626442831
   0.562033573   0.561870662   0.312043902
   0.686918151   0.686749662   0.311912952
   0.687405522   0.561947639   0.436960325
   0.562107562   0.687242439   0.436951386
   0.499608032   0.499446323   0.249649575
   0.624362205   0.624189560   0.249304689
   0.626362822   0.499584263   0.373071324
   0.499743633   0.626223228   0.373037922
   0.564431632   0.564270324   0.564516205
   0.687073274   0.686911360   0.561905626
   0.687072956   0.561656505   0.687149973
   0.561824431   0.686909805   0.687163643
   0.624485689   0.624327257   0.499149894
   0.624488119   0.498899869   0.624565243
   0.499068823   0.624323651   0.624577733
   0.475701881   0.475650894   0.533815138
   0.475804565   0.533509469   0.475736554
   0.533772690   0.475537033   0.475933373
