GaN_ON                                  
    1.000000000000000     
    15.8909244537000003    0.0000000000000000    0.0000000000000000
     0.0000000000000000   16.5143318175999987    0.0000000000000000
     0.0000000000000000    0.0000000000000000   15.4982528686999999
   Ga   N    O 
   180   179     1
Direct
  0.0999249177049610  0.0554973313165577  0.3329192798589384
  0.0999613646081240  0.0554909010165439  0.6663598351312164
  0.0999594156793116  0.0555224947647750  0.9996321499221805
  0.0996566800786999  0.3886321818546709  0.3328755410813644
  0.0996882872548307  0.3886581760545029  0.6666184061650294
  0.0998609447550430  0.3887772250424312  0.9996642321563599
  0.0998348262078975  0.7222922263863105  0.3329023204635054
  0.0999185902340881  0.7222416621160990  0.6664820280827032
  0.0999174382645866  0.7222583649871314  0.9996874198773098
  0.2999528473475149  0.0555531525201763  0.3329088759943904
  0.2999608842752089  0.0555661359633997  0.6664091900386602
  0.2999771071988652  0.0555429917809137  0.9996348726190685
  0.2993318692481244  0.3883480493381004  0.3326053630904964
  0.2995562262438189  0.3885684538719280  0.6669617372101863
  0.2999100383556937  0.3887455602076236  0.9998115995909675
  0.2999674200607000  0.7228788127945091  0.3326018296543427
  0.3000596454281624  0.7225768121008325  0.6669280008996618
  0.2999447591206268  0.7223123938380258  0.9998083795688536
  0.5000471646524833  0.0555531525201763  0.3329088759943904
  0.5000391277247891  0.0555661359633997  0.6664091900386602
  0.5000229048011330  0.0555429917809137  0.9996348726190685
  0.5006681427518737  0.3883480493381004  0.3326053630904964
  0.5004437857561792  0.3885684538719280  0.6669617372101863
  0.5000899736443043  0.3887455602076236  0.9998115995909675
  0.5000325919392982  0.7228788127945091  0.3326018296543427
  0.4999403665718357  0.7225768121008325  0.6669280008996618
  0.5000552528793711  0.7223123938380258  0.9998083795688536
  0.7000750712950388  0.0554973313165577  0.3329192798589384
  0.7000386243918758  0.0554909010165439  0.6663598351312164
  0.7000405733206884  0.0555224947647750  0.9996321499221805
  0.7003433089212996  0.3886321818546709  0.3328755410813644
  0.7003117017451691  0.3886581760545029  0.6666184061650294
  0.7001390442449569  0.3887772250424312  0.9996642321563599
  0.7001651627921025  0.7222922263863105  0.3329023204635054
  0.7000813987659115  0.7222416621160990  0.6664820280827032
  0.7000825507354133  0.7222583649871314  0.9996874198773098
  0.8999999759999966  0.0555091772259907  0.3329507381517800
  0.8999999759999966  0.0554992736589879  0.6663453183880149
  0.8999999759999966  0.0555281206845025  0.9996414371494385
  0.8999999759999966  0.3887478180461690  0.3328943144045158
  0.8999999759999966  0.3887772336249656  0.6664149129917061
  0.8999999759999966  0.3887978642470173  0.9996357789892270
  0.8999999759999966  0.7222606894865983  0.3329245989632764
  0.8999999759999966  0.7222404736525472  0.6663855617074066
  0.8999999759999966  0.7222248624375693  0.9996359720347459
 -0.0000948283630571  0.2220818123131608  0.3329172770391782
 -0.0000770025204503  0.2220907074693533  0.6663845240305777
 -0.0000469457185542  0.2221370051462969  0.9996373732684833
 -0.0001923169540141  0.5554635147580623  0.3328002935787248
 -0.0001056825150095  0.5554878455629731  0.6664483007102453
 -0.0000684439471601  0.5555057040570964  0.9996580415061802
 -0.0000496016245173  0.8889146960997097  0.3329423922359546
 -0.0000285607716647  0.8888895631854626  0.6663632527601503
 -0.0000228403579892  0.8888991257815462  0.9996417480462225
  0.1997852303729847  0.2219849159700625  0.3328207823259403
  0.1998553956607629  0.2220642664646766  0.6664694598322549
  0.1999127279861222  0.2221202869483652  0.9996708932734498
  0.1993030033100248  0.5551350968756027  0.3326075320739128
  0.1996000547046539  0.5552117585673262  0.6669429776585813
  0.1998672922068703  0.5555258944560897  0.9998182271189993
  0.1999369534104154  0.8890560541777311  0.3328207009675198
  0.1999844795257602  0.8889487171244514  0.6664361476632142
  0.1999625740165066  0.8889407361667968  0.9996651789550546
  0.4000000059999991  0.2219671713680030  0.3329018081523629
  0.4000000059999991  0.2220514444653129  0.6665277840679497
  0.4000000059999991  0.2220920477516325  0.9997029557994589
  0.4000000059999991  0.5554193112750934  0.3272274647225591
  0.4000000059999991  0.5554137152667928  0.6672204623002488
  0.4000000059999991  0.5555226988959046  0.0001221393745646
  0.4000000059999991  0.8892131212487786  0.3328724555482271
  0.4000000059999991  0.8891707759718073  0.6666063817717086
  0.4000000059999991  0.8890014671934854  0.9996513650555976
  0.6002147966270183  0.2219849159700625  0.3328207823259403
  0.6001446313392400  0.2220642664646766  0.6664694598322549
  0.6000872990138807  0.2221202869483652  0.9996708932734498
  0.6006970236899781  0.5551350968756027  0.3326075320739128
  0.6003999722953490  0.5552117585673262  0.6669429776585813
  0.6001327347931324  0.5555258944560897  0.9998182271189993
  0.6000630735895874  0.8890560541777311  0.3328207009675198
  0.6000155474742427  0.8889487171244514  0.6664361476632142
  0.6000374529834965  0.8889407361667968  0.9996651789550546
  0.8000948403630553  0.2220818123131608  0.3329172770391782
  0.8000770145204483  0.2220907074693533  0.6663845240305777
  0.8000469577185525  0.2221370051462969  0.9996373732684833
  0.8001923289540122  0.5554635147580623  0.3328002935787248
  0.8001056945150078  0.5554878455629731  0.6664483007102453
  0.8000684559471583  0.5555057040570964  0.9996580415061802
  0.8000496136245155  0.8889146960997097  0.3329423922359546
  0.8000285727716627  0.8888895631854626  0.6663632527601503
  0.8000228523579873  0.8888991257815462  0.9996417480462225
  0.0998907973719656  0.2777031038951391  0.1662241852473434
  0.0997750250348767  0.2776044924441514  0.4997257069237943
  0.0999410600966488  0.2777241332698164  0.8330910767553346
  0.0997357625150199  0.6112399589604710  0.1662231736840917
  0.0993784785477245  0.6111542381888113  0.4997528777962813
  0.0998775096499009  0.6112160932548508  0.8331953369461597
  0.0999242311101960  0.9445209832669560  0.1662489548481687
  0.0999289526964888  0.9444759271874462  0.4996537518712293
  0.0999594431828819  0.9444875706382334  0.8330183625870446
  0.2999251783264933  0.2775005932471007  0.1662245921520198
  0.2997324469419174  0.2771305745985909  0.4997898363050147
  0.2999796561167513  0.2776433809033584  0.8332237565983598
  0.2996021231792657  0.6113429317220744  0.1659744656019854
  0.2956708067242864  0.6134397850079832  0.5013334646857049
  0.2999517839944117  0.6111463154877882  0.8335571767687060
  0.2999585251967611  0.9445459440794075  0.1662211972987098
  0.2999960359042341  0.9446403465066051  0.4997244343192909
  0.2999505671517578  0.9445105374202548  0.8330827172864089
  0.5000748336735050  0.2775005932471007  0.1662245921520198
  0.5002675650580806  0.2771305745985909  0.4997898363050147
  0.5000203558832469  0.2776433809033584  0.8332237565983598
  0.5003978888207326  0.6113429317220744  0.1659744656019854
  0.5043292052757118  0.6134397850079832  0.5013334646857049
  0.5000482280055866  0.6111463154877882  0.8335571767687060
  0.5000414868032372  0.9445459440794075  0.1662211972987098
  0.5000039760957640  0.9446403465066051  0.4997244343192909
  0.5000494448482403  0.9445105374202548  0.8330827172864089
  0.7001091916280342  0.2777031038951391  0.1662241852473434
  0.7002249639651232  0.2776044924441514  0.4997257069237943
  0.7000589289033510  0.2777241332698164  0.8330910767553346
  0.7002642264849798  0.6112399589604710  0.1662231736840917
  0.7006215104522753  0.6111542381888113  0.4997528777962813
  0.7001224793500989  0.6112160932548508  0.8331953369461597
  0.7000757578898040  0.9445209832669560  0.1662489548481687
  0.7000710363035112  0.9444759271874462  0.4996537518712293
  0.7000405458171179  0.9444875706382334  0.8330183625870446
  0.8999999759999966  0.2777482419994079  0.1662630418651433
  0.8999999759999966  0.2776761675807410  0.4996816674182185
  0.8999999759999966  0.2777645633310646  0.8330280517314925
  0.8999999759999966  0.6111962019259385  0.1662113655874967
  0.8999999759999966  0.6111603731494244  0.4996584400749435
  0.8999999759999966  0.6111879444125492  0.8330373799957461
  0.8999999759999966  0.9445204998039570  0.1662829470664496
  0.8999999759999966  0.9444482337239962  0.4996580872759804
  0.8999999759999966  0.9445026273753987  0.8330027499355964
 -0.0000320338699506  0.1111108059407777  0.1662739404247541
 -0.0000462285612967  0.1110362562895763  0.4996616912483684
 -0.0000171749943592  0.1111133331697701  0.8330089213538838
 -0.0000971374225550  0.4444299763525256  0.1662176028710582
 -0.0001680630911931  0.4443128534863176  0.4997255524966527
 -0.0000736136711147  0.4444724664152762  0.8330901029494585
 -0.0000872156567253  0.7779022054692315  0.1662623919393768
 -0.0000778963343518  0.7778493830415194  0.4996775474908171
 -0.0000534255422279  0.7778712657386720  0.8330307589152416
  0.1999393979729116  0.1110508813652656  0.1662295441577607
  0.1999041208240918  0.1110195122200823  0.4996645973020566
  0.1999660101759131  0.1110804672186448  0.8330405897800338
  0.1997631221712676  0.4443155010795261  0.1661737599590499
  0.1993335484946616  0.4439965810535454  0.5002934011204269
  0.1998968621805399  0.4444060514521053  0.8333493829206948
  0.1997856835206912  0.7779834978127453  0.1662276566419181
  0.1996307271820109  0.7782393499173009  0.4997535870314236
  0.1998884478094352  0.7778693614949137  0.8331863058609366
  0.4000000059999991  0.1110200709358658  0.1662552938739385
  0.4000000059999991  0.1110176947102586  0.4997008050404594
  0.4000000059999991  0.1110560238858542  0.8330528812048354
  0.4000000059999991  0.4439631177948642  0.1659729999536036
  0.4000000059999991  0.4395377567523471  0.5013340445338088
  0.4000000059999991  0.4443580059100521  0.8335945114633377
  0.4000000059999991  0.7780641549759800  0.1661666070113440
  0.4000000059999991  0.7784574776325490  0.5002584381637791
  0.4000000059999991  0.7778996589863961  0.8333264041431118
  0.6000606290270913  0.1110508813652656  0.1662295441577607
  0.6000959061759111  0.1110195122200823  0.4996645973020566
  0.6000340168240901  0.1110804672186448  0.8330405897800338
  0.6002369048287354  0.4443155010795261  0.1661737599590499
  0.6006664785053412  0.4439965810535454  0.5002934011204269
  0.6001031648194629  0.4444060514521053  0.8333493829206948
  0.6002143434793116  0.7779834978127453  0.1662276566419181
  0.6003692998179923  0.7782393499173009  0.4997535870314236
  0.6001115791905681  0.7778693614949137  0.8331863058609366
  0.8000320458699487  0.1111108059407777  0.1662739404247541
  0.8000462405612948  0.1110362562895763  0.4996616912483684
  0.8000171869943573  0.1111133331697701  0.8330089213538838
  0.8000971494225533  0.4444299763525256  0.1662176028710582
  0.8001680750911910  0.4443128534863176  0.4997255524966527
  0.8000736256711131  0.4444724664152762  0.8330901029494585
  0.8000872276567235  0.7779022054692315  0.1662623919393768
  0.8000779083343500  0.7778493830415194  0.4996775474908171
  0.8000534375422260  0.7778712657386720  0.8330307589152416
  0.0999826833017338  0.0555709718402384  0.1252828358121799
  0.1000221204781571  0.0555179317976502  0.4585802431204344
  0.1000180850100459  0.0555616613869892  0.7919544377942128
  0.0999547072016732  0.3888822184198688  0.1253368821865328
  0.1000013040843546  0.3888556367913914  0.4585925102584964
  0.1000356880234885  0.3889400714212735  0.7921245848066765
  0.0999793730657665  0.7222556620359901  0.1253831033174654
  0.1002196613058449  0.7220594924057295  0.4586297525419934
  0.1000402666339567  0.7222196693579580  0.7920102529627181
  0.2999987621855392  0.0555836245682329  0.1252899496196960
  0.3000102146427771  0.0556182912391034  0.4585797494867693
  0.3000046728704703  0.0555623400869287  0.7919803673913237
  0.2999762751694899  0.3888426409431105  0.1256548083591416
  0.2998511033378262  0.3894522126773935  0.4584581726193161
  0.3001039097561995  0.3889778659418759  0.7922145223655194
  0.2999770790425302  0.7222630233592585  0.1256607849483663
  0.3006658792505224  0.7219315842755002  0.4584478569691778
  0.3000390219157492  0.7220740116886916  0.7921715221728468
  0.5000012498144590  0.0555836245682329  0.1252899496196960
  0.4999897973572210  0.0556182912391034  0.4585797494867693
  0.4999953391295279  0.0555623400869287  0.7919803673913237
  0.5000237368305083  0.3888426409431105  0.1256548083591416
  0.5001489086621717  0.3894522126773935  0.4584581726193161
  0.4998961022437987  0.3889778659418759  0.7922145223655194
  0.5000229329574679  0.7222630233592585  0.1256607849483663
  0.4993341327494757  0.7219315842755002  0.4584478569691778
  0.4999609900842490  0.7220740116886916  0.7921715221728468
  0.7000173056982658  0.0555709718402384  0.1252828358121799
  0.6999778685218427  0.0555179317976502  0.4585802431204344
  0.6999819039899539  0.0555616613869892  0.7919544377942128
  0.7000452817983267  0.3888822184198688  0.1253368821865328
  0.6999986849156453  0.3888556367913914  0.4585925102584964
  0.6999643009765113  0.3889400714212735  0.7921245848066765
  0.7000206159342336  0.7222556620359901  0.1253831033174654
  0.6997803276941549  0.7220594924057295  0.4586297525419934
  0.6999597223660431  0.7222196693579580  0.7920102529627181
  0.8999999759999966  0.0555844025208274  0.1252903755162676
  0.8999999759999966  0.0555028646424784  0.4586003363414061
  0.8999999759999966  0.0555862489230346  0.7919499451772682
  0.8999999759999966  0.3888790522716016  0.1252849505236497
  0.8999999759999966  0.3888308477894085  0.4585652667023241
  0.8999999759999966  0.3889216101592305  0.7919833886679718
  0.8999999759999966  0.7222435527143750  0.1253099231923255
  0.8999999759999966  0.7221627499354187  0.4585918195110136
  0.8999999759999966  0.7222313718151112  0.7919512288238720
 -0.0000216344301835  0.2222261110507848  0.1252843781880190
 -0.0000252742006881  0.2221757574203617  0.4585752811763765
  0.0000078945737662  0.2222528028601628  0.7919701912294634
 -0.0000191941783688  0.5555546025660114  0.1253377764812343
  0.0000657717106501  0.5554173105873416  0.4585167242376891
  0.0000425994739908  0.5555943651205612  0.7919943223841999
 -0.0000030695974331  0.8889181026820573  0.1253024247738750
  0.0000457433578692  0.8888165134841470  0.4585990585859940
  0.0000155953197694  0.8889006332788961  0.7919523764685509
  0.1999600586612607  0.2222232097723967  0.1253413123671659
  0.1999389694929819  0.2223274905979562  0.4585317475297487
  0.2000351143685833  0.2222757323035994  0.7920258582974454
  0.1999490126586310  0.5555715164067098  0.1256694091529350
  0.2005100629531849  0.5550282199943823  0.4584551153609239
  0.2001320153917910  0.5556112089634822  0.7921837079422941
  0.2000013894892376  0.8889269231727407  0.1253462726631087
  0.2001836088135685  0.8888221136280000  0.4585329425247078
  0.2000326226474647  0.8888365132950476  0.7919865167020660
  0.4000000059999991  0.2222064580211557  0.1253929188368276
  0.4000000059999991  0.2224263344943472  0.4586277929595836
  0.4000000059999991  0.2222732396327983  0.7920507415545034
  0.4000000059999991  0.5555313074284867  0.1263286300917631
  0.4000000059999991  0.5555208744620856  0.7921728349268403
  0.4000000059999991  0.8889523295970208  0.1253309738822344
  0.4000000059999991  0.8888389044861448  0.4585875715755990
  0.4000000059999991  0.8888500867932919  0.7921071503238326
  0.6000399683387422  0.2222232097723967  0.1253413123671659
  0.6000610575070210  0.2223274905979562  0.4585317475297487
  0.5999649126314198  0.2222757323035994  0.7920258582974454
  0.6000510143413719  0.5555715164067098  0.1256694091529350
  0.5994899640468180  0.5550282199943823  0.4584551153609239
  0.5998680116082119  0.5556112089634822  0.7921837079422941
  0.5999986375107654  0.8889269231727407  0.1253462726631087
  0.5998164181864346  0.8888221136280000  0.4585329425247078
  0.5999674043525383  0.8888365132950476  0.7919865167020660
  0.8000216464301817  0.2222261110507848  0.1252843781880190
  0.8000252862006862  0.2221757574203617  0.4585752811763765
  0.7999921174262318  0.2222528028601628  0.7919701912294634
  0.8000192061783669  0.5555546025660114  0.1253377764812343
  0.7999342402893481  0.5554173105873416  0.4585167242376891
  0.7999574125260074  0.5555943651205612  0.7919943223841999
  0.8000030815974312  0.8889181026820573  0.1253024247738750
  0.7999542686421290  0.8888165134841470  0.4585990585859940
  0.7999844166802286  0.8889006332788961  0.7919523764685509
  0.0999612009798877  0.2777158919135387  0.2919260358188311
  0.0999967532547074  0.2777507964441790  0.6253066008544393
  0.0999984895325133  0.2777522024374809  0.9586883218013188
  0.1000092790566191  0.6110977796187561  0.2920376592128079
  0.1002176481830725  0.6110040896782613  0.6252502595676418
  0.1000362271942447  0.6110842521632489  0.9587879902170409
  0.0999923047669522  0.9443786377337950  0.2919354338693361
  0.1000620920159698  0.9443273288729463  0.6252567509256985
  0.1000156137299164  0.9444053345837192  0.9586345441797196
  0.3000030644069634  0.2776597651271269  0.2920305341372028
  0.3000432106513722  0.2778813722382631  0.6252810311946512
  0.3000041817459085  0.2777783311945382  0.9588115503393744
  0.2998807696720432  0.6110867583675215  0.2930457730210617
  0.3004577849721743  0.6107504287598285  0.6250412225857671
  0.3000818742895096  0.6110418418884209  0.9591263857188427
  0.2999992740186607  0.9444196597132010  0.2919252896619516
  0.3000203118531156  0.9443943009966443  0.6252995893743539
  0.2999930881336940  0.9444126594767965  0.9586731385632606
  0.4999969475930348  0.2776597651271269  0.2920305341372028
  0.4999568013486259  0.2778813722382631  0.6252810311946512
  0.4999958302540896  0.2777783311945382  0.9588115503393744
  0.5001192423279548  0.6110867583675215  0.2930457730210617
  0.4995422270278239  0.6107504287598285  0.6250412225857671
  0.4999181377104886  0.6110418418884209  0.9591263857188427
  0.5000007379813375  0.9444196597132010  0.2919252896619516
  0.4999797001468826  0.9443943009966443  0.6252995893743539
  0.5000069238663043  0.9444126594767965  0.9586731385632606
  0.7000387880201119  0.2777158919135387  0.2919260358188311
  0.7000032357452923  0.2777507964441790  0.6253066008544393
  0.7000014994674867  0.2777522024374809  0.9586883218013188
  0.6999907099433806  0.6110977796187561  0.2920376592128079
  0.6997823408169275  0.6110040896782613  0.6252502595676418
  0.6999637618057551  0.6110842521632489  0.9587879902170409
  0.7000076842330475  0.9443786377337950  0.2919354338693361
  0.6999378969840299  0.9443273288729463  0.6252567509256985
  0.6999843752700833  0.9444053345837192  0.9586345441797196
  0.8999999759999966  0.2777460650843751  0.2919285894219437
  0.8999999759999966  0.2777620955580883  0.6252919795961359
  0.8999999759999966  0.2777578457973908  0.9586339173428031
  0.8999999759999966  0.6111494412503327  0.2919206213563952
  0.8999999759999966  0.6110992236839630  0.6252422759633179
  0.8999999759999966  0.6110884488852505  0.9586457791832597
  0.8999999759999966  0.9444082540430828  0.2919571975685096
  0.8999999759999966  0.9443743134526561  0.6252672372243029
  0.8999999759999966  0.9444173730433502  0.9586302962140424
 -0.0000035820524973  0.1110575916207819  0.2919389186929728
  0.0000171359449924  0.1110522094297257  0.6252746208304456
  0.0000067847256546  0.1110825115339617  0.9586259586589658
 -0.0000253074954778  0.4444282749417838  0.2919222066661118
  0.0000127756111297  0.4444436243699420  0.6253016092580552
 -0.0000091436256802  0.4444386124834383  0.9586795711585530
  0.0000094689885491  0.7777489594751190  0.2919668693862955
  0.0000644047830333  0.7776914466510861  0.6252654553798898
  0.0000110964688532  0.7777505221854083  0.9586447260393556
  0.1999878849495462  0.1110239229055187  0.2919176756248976
  0.2000180729556066  0.1110916332791084  0.6252618653358968
  0.2000026969255033  0.1110866994211007  0.9586531091687206
  0.1999109073097815  0.4443145778834270  0.2920019640259311
  0.2000060473055507  0.4443620559962120  0.6255536783903107
  0.2000258304098903  0.4444474001112446  0.9589288142024643
  0.2000040992768863  0.7777101654591028  0.2920410225069168
  0.2001988784796855  0.7775541103906617  0.6252480686698504
  0.2000387428291760  0.7777181354612398  0.9587802492990433
  0.4000000059999991  0.1110471718582332  0.2919533973006546
  0.4000000059999991  0.1111115624988309  0.6252911730528712
  0.4000000059999991  0.1110815431669801  0.9586561539179311
  0.4000000059999991  0.4441659813193519  0.2930475612458854
  0.4000000059999991  0.4447947339947985  0.6250605128848573
  0.4000000059999991  0.4444949259322164  0.9591499108833389
  0.4000000059999991  0.7778342054046560  0.2920059724769232
  0.4000000059999991  0.7777222400208268  0.6255245268975050
  0.4000000059999991  0.7777098346021067  0.9589095059835032
  0.6000121420504566  0.1110239229055187  0.2919176756248976
  0.5999819540443964  0.1110916332791084  0.6252618653358968
  0.5999973300744995  0.1110866994211007  0.9586531091687206
  0.6000891196902215  0.4443145778834270  0.2920019640259311
  0.5999939796944522  0.4443620559962120  0.6255536783903107
  0.5999741965901128  0.4444474001112446  0.9589288142024643
  0.5999959277231165  0.7777101654591028  0.2920410225069168
  0.5998011485203177  0.7775541103906617  0.6252480686698504
  0.5999612841708272  0.7777181354612398  0.9587802492990433
  0.8000035940524955  0.1110575916207819  0.2919389186929728
  0.7999828760550056  0.1110522094297257  0.6252746208304456
  0.7999932272743436  0.1110825115339617  0.9586259586589658
  0.8000253194954762  0.4444282749417838  0.2919222066661118
  0.7999872363888683  0.4444436243699420  0.6253016092580552
  0.8000091556256784  0.4444386124834383  0.9586795711585530
  0.7999905430114492  0.7777489594751190  0.2919668693862955
  0.7999356072169651  0.7776914466510861  0.6252654553798898
  0.7999889155311449  0.7777505221854083  0.9586447260393556
  0.4000000059999991  0.5554776755188011  0.4585878495142308
 
  0.00000000E+00  0.00000000E+00  0.00000000E+00
  0.00000000E+00  0.00000000E+00  0.00000000E+00
  0.00000000E+00  0.00000000E+00  0.00000000E+00
  0.00000000E+00  0.00000000E+00  0.00000000E+00
  0.00000000E+00  0.00000000E+00  0.00000000E+00
  0.00000000E+00  0.00000000E+00  0.00000000E+00
  0.00000000E+00  0.00000000E+00  0.00000000E+00
  0.00000000E+00  0.00000000E+00  0.00000000E+00
  0.00000000E+00  0.00000000E+00  0.00000000E+00
  0.00000000E+00  0.00000000E+00  0.00000000E+00
  0.00000000E+00  0.00000000E+00  0.00000000E+00
  0.00000000E+00  0.00000000E+00  0.00000000E+00
  0.00000000E+00  0.00000000E+00  0.00000000E+00
  0.00000000E+00  0.00000000E+00  0.00000000E+00
  0.00000000E+00  0.00000000E+00  0.00000000E+00
  0.00000000E+00  0.00000000E+00  0.00000000E+00
  0.00000000E+00  0.00000000E+00  0.00000000E+00
  0.00000000E+00  0.00000000E+00  0.00000000E+00
  0.00000000E+00  0.00000000E+00  0.00000000E+00
  0.00000000E+00  0.00000000E+00  0.00000000E+00
  0.00000000E+00  0.00000000E+00  0.00000000E+00
  0.00000000E+00  0.00000000E+00  0.00000000E+00
  0.00000000E+00  0.00000000E+00  0.00000000E+00
  0.00000000E+00  0.00000000E+00  0.00000000E+00
  0.00000000E+00  0.00000000E+00  0.00000000E+00
  0.00000000E+00  0.00000000E+00  0.00000000E+00
  0.00000000E+00  0.00000000E+00  0.00000000E+00
  0.00000000E+00  0.00000000E+00  0.00000000E+00
  0.00000000E+00  0.00000000E+00  0.00000000E+00
  0.00000000E+00  0.00000000E+00  0.00000000E+00
  0.00000000E+00  0.00000000E+00  0.00000000E+00
  0.00000000E+00  0.00000000E+00  0.00000000E+00
  0.00000000E+00  0.00000000E+00  0.00000000E+00
  0.00000000E+00  0.00000000E+00  0.00000000E+00
  0.00000000E+00  0.00000000E+00  0.00000000E+00
  0.00000000E+00  0.00000000E+00  0.00000000E+00
  0.00000000E+00  0.00000000E+00  0.00000000E+00
  0.00000000E+00  0.00000000E+00  0.00000000E+00
  0.00000000E+00  0.00000000E+00  0.00000000E+00
  0.00000000E+00  0.00000000E+00  0.00000000E+00
  0.00000000E+00  0.00000000E+00  0.00000000E+00
  0.00000000E+00  0.00000000E+00  0.00000000E+00
  0.00000000E+00  0.00000000E+00  0.00000000E+00
  0.00000000E+00  0.00000000E+00  0.00000000E+00
  0.00000000E+00  0.00000000E+00  0.00000000E+00
  0.00000000E+00  0.00000000E+00  0.00000000E+00
  0.00000000E+00  0.00000000E+00  0.00000000E+00
  0.00000000E+00  0.00000000E+00  0.00000000E+00
  0.00000000E+00  0.00000000E+00  0.00000000E+00
  0.00000000E+00  0.00000000E+00  0.00000000E+00
  0.00000000E+00  0.00000000E+00  0.00000000E+00
  0.00000000E+00  0.00000000E+00  0.00000000E+00
  0.00000000E+00  0.00000000E+00  0.00000000E+00
  0.00000000E+00  0.00000000E+00  0.00000000E+00
  0.00000000E+00  0.00000000E+00  0.00000000E+00
  0.00000000E+00  0.00000000E+00  0.00000000E+00
  0.00000000E+00  0.00000000E+00  0.00000000E+00
  0.00000000E+00  0.00000000E+00  0.00000000E+00
  0.00000000E+00  0.00000000E+00  0.00000000E+00
  0.00000000E+00  0.00000000E+00  0.00000000E+00
  0.00000000E+00  0.00000000E+00  0.00000000E+00
  0.00000000E+00  0.00000000E+00  0.00000000E+00
  0.00000000E+00  0.00000000E+00  0.00000000E+00
  0.00000000E+00  0.00000000E+00  0.00000000E+00
  0.00000000E+00  0.00000000E+00  0.00000000E+00
  0.00000000E+00  0.00000000E+00  0.00000000E+00
  0.00000000E+00  0.00000000E+00  0.00000000E+00
  0.00000000E+00  0.00000000E+00  0.00000000E+00
  0.00000000E+00  0.00000000E+00  0.00000000E+00
  0.00000000E+00  0.00000000E+00  0.00000000E+00
  0.00000000E+00  0.00000000E+00  0.00000000E+00
  0.00000000E+00  0.00000000E+00  0.00000000E+00
  0.00000000E+00  0.00000000E+00  0.00000000E+00
  0.00000000E+00  0.00000000E+00  0.00000000E+00
  0.00000000E+00  0.00000000E+00  0.00000000E+00
  0.00000000E+00  0.00000000E+00  0.00000000E+00
  0.00000000E+00  0.00000000E+00  0.00000000E+00
  0.00000000E+00  0.00000000E+00  0.00000000E+00
  0.00000000E+00  0.00000000E+00  0.00000000E+00
  0.00000000E+00  0.00000000E+00  0.00000000E+00
  0.00000000E+00  0.00000000E+00  0.00000000E+00
  0.00000000E+00  0.00000000E+00  0.00000000E+00
  0.00000000E+00  0.00000000E+00  0.00000000E+00
  0.00000000E+00  0.00000000E+00  0.00000000E+00
  0.00000000E+00  0.00000000E+00  0.00000000E+00
  0.00000000E+00  0.00000000E+00  0.00000000E+00
  0.00000000E+00  0.00000000E+00  0.00000000E+00
  0.00000000E+00  0.00000000E+00  0.00000000E+00
  0.00000000E+00  0.00000000E+00  0.00000000E+00
  0.00000000E+00  0.00000000E+00  0.00000000E+00
  0.00000000E+00  0.00000000E+00  0.00000000E+00
  0.00000000E+00  0.00000000E+00  0.00000000E+00
  0.00000000E+00  0.00000000E+00  0.00000000E+00
  0.00000000E+00  0.00000000E+00  0.00000000E+00
  0.00000000E+00  0.00000000E+00  0.00000000E+00
  0.00000000E+00  0.00000000E+00  0.00000000E+00
  0.00000000E+00  0.00000000E+00  0.00000000E+00
  0.00000000E+00  0.00000000E+00  0.00000000E+00
  0.00000000E+00  0.00000000E+00  0.00000000E+00
  0.00000000E+00  0.00000000E+00  0.00000000E+00
  0.00000000E+00  0.00000000E+00  0.00000000E+00
  0.00000000E+00  0.00000000E+00  0.00000000E+00
  0.00000000E+00  0.00000000E+00  0.00000000E+00
  0.00000000E+00  0.00000000E+00  0.00000000E+00
  0.00000000E+00  0.00000000E+00  0.00000000E+00
  0.00000000E+00  0.00000000E+00  0.00000000E+00
  0.00000000E+00  0.00000000E+00  0.00000000E+00
  0.00000000E+00  0.00000000E+00  0.00000000E+00
  0.00000000E+00  0.00000000E+00  0.00000000E+00
  0.00000000E+00  0.00000000E+00  0.00000000E+00
  0.00000000E+00  0.00000000E+00  0.00000000E+00
  0.00000000E+00  0.00000000E+00  0.00000000E+00
  0.00000000E+00  0.00000000E+00  0.00000000E+00
  0.00000000E+00  0.00000000E+00  0.00000000E+00
  0.00000000E+00  0.00000000E+00  0.00000000E+00
  0.00000000E+00  0.00000000E+00  0.00000000E+00
  0.00000000E+00  0.00000000E+00  0.00000000E+00
  0.00000000E+00  0.00000000E+00  0.00000000E+00
  0.00000000E+00  0.00000000E+00  0.00000000E+00
  0.00000000E+00  0.00000000E+00  0.00000000E+00
  0.00000000E+00  0.00000000E+00  0.00000000E+00
  0.00000000E+00  0.00000000E+00  0.00000000E+00
  0.00000000E+00  0.00000000E+00  0.00000000E+00
  0.00000000E+00  0.00000000E+00  0.00000000E+00
  0.00000000E+00  0.00000000E+00  0.00000000E+00
  0.00000000E+00  0.00000000E+00  0.00000000E+00
  0.00000000E+00  0.00000000E+00  0.00000000E+00
  0.00000000E+00  0.00000000E+00  0.00000000E+00
  0.00000000E+00  0.00000000E+00  0.00000000E+00
  0.00000000E+00  0.00000000E+00  0.00000000E+00
  0.00000000E+00  0.00000000E+00  0.00000000E+00
  0.00000000E+00  0.00000000E+00  0.00000000E+00
  0.00000000E+00  0.00000000E+00  0.00000000E+00
  0.00000000E+00  0.00000000E+00  0.00000000E+00
  0.00000000E+00  0.00000000E+00  0.00000000E+00
  0.00000000E+00  0.00000000E+00  0.00000000E+00
  0.00000000E+00  0.00000000E+00  0.00000000E+00
  0.00000000E+00  0.00000000E+00  0.00000000E+00
  0.00000000E+00  0.00000000E+00  0.00000000E+00
  0.00000000E+00  0.00000000E+00  0.00000000E+00
  0.00000000E+00  0.00000000E+00  0.00000000E+00
  0.00000000E+00  0.00000000E+00  0.00000000E+00
  0.00000000E+00  0.00000000E+00  0.00000000E+00
  0.00000000E+00  0.00000000E+00  0.00000000E+00
  0.00000000E+00  0.00000000E+00  0.00000000E+00
  0.00000000E+00  0.00000000E+00  0.00000000E+00
  0.00000000E+00  0.00000000E+00  0.00000000E+00
  0.00000000E+00  0.00000000E+00  0.00000000E+00
  0.00000000E+00  0.00000000E+00  0.00000000E+00
  0.00000000E+00  0.00000000E+00  0.00000000E+00
  0.00000000E+00  0.00000000E+00  0.00000000E+00
  0.00000000E+00  0.00000000E+00  0.00000000E+00
  0.00000000E+00  0.00000000E+00  0.00000000E+00
  0.00000000E+00  0.00000000E+00  0.00000000E+00
  0.00000000E+00  0.00000000E+00  0.00000000E+00
  0.00000000E+00  0.00000000E+00  0.00000000E+00
  0.00000000E+00  0.00000000E+00  0.00000000E+00