GaN_CN                                  
   1.00000000000000     
     9.5889339447000008    0.0000000000000000    0.0000000000000000
     0.0000000000000000   11.0723476410000004    0.0000000000000000
     0.0000000000000000    0.0000000000000000   10.4212007523000008
   Ga   N    C 
    48    47     1
Direct
  0.1664980937707004  0.0832778581998698  0.5002103208776645
  0.1666896886823373  0.0831869178277214  0.0000639842498132
  0.1666535695917775  0.5825625895470891  0.4991083301673719
  0.1665822901811503  0.5829455676864802  0.9999926421397083
  0.5000000000000000  0.0847617896904955  0.4995869327446798
  0.5000000000000000  0.0832192051119045  0.0000823867806059
  0.5000000000000000  0.5827013573202077  0.5012401767014950
  0.5000000000000000  0.5829310515221299  0.9978406540529687
  0.8335018912292945  0.0832778581998698  0.5002103208776645
  0.8333102963176579  0.0831869178277214  0.0000639842498132
  0.8333464154082177  0.5825625895470891  0.4991083301673719
  0.8334176948188449  0.5829455676864802  0.9999926421397083
 -0.0000000000000000  0.3327928473327934  0.5000877952182328
 -0.0000000000000000  0.3331937633462865  0.0001353408058966
 -0.0000000000000000  0.8330382179341572  0.5000488966569380
 -0.0000000000000000  0.8328624153643879  0.9998634549000429
  0.3329925465846041  0.3356059731309337  0.5003448426303527
  0.3331566532489417  0.3330956657172374  0.9980716207955901
  0.3335598100644319  0.8336762296999050  0.5001468568708943
  0.3333222283127489  0.8330295825448355  0.9997999788372902
  0.6670074834153983  0.3356059731309337  0.5003448426303527
  0.6668433767510605  0.3330956657172374  0.9980716207955901
  0.6664402199355708  0.8336762296999050  0.5001468568708943
  0.6666778016872535  0.8330295825448355  0.9997999788372902
  0.1672513493936099  0.4162738241205449  0.2495855217012373
  0.1662159389986701  0.4168320287803934  0.7501837735407628
  0.1667245021618022  0.9169028839078261  0.2496113395705967
  0.1664594535922177  0.9168101830988797  0.7501406398726066
  0.5000000000000000  0.4166737227553393  0.2501440436585119
  0.5000000000000000  0.4161834781018782  0.7477340064946485
  0.5000000000000000  0.9172990978843727  0.2496836082998125
  0.5000000000000000  0.9171447370974424  0.7499062843996267
  0.8327486356063853  0.4162738241205449  0.2495855217012373
  0.8337840460013249  0.4168320287803934  0.7501837735407628
  0.8332754828381931  0.9169028839078261  0.2496113395705967
  0.8335405314077774  0.9168101830988797  0.7501406398726066
 -0.0000000000000000  0.1669167013265033  0.2496833629862390
 -0.0000000000000000  0.1669807561091063  0.7502064039116696
 -0.0000000000000000  0.6666243705588448  0.2497154725379406
 -0.0000000000000000  0.6665205079357692  0.7496701913602425
  0.3333523778455769  0.1681541554081346  0.2495113902306912
  0.3330971382115404  0.1666789501995001  0.7499070465667407
  0.3340917220697273  0.6663670081260918  0.2492517972479532
  0.3326815552898946  0.6669090460049768  0.7498414685490402
  0.6666476521544253  0.1681541554081346  0.2495113902306912
  0.6669028917884618  0.1666789501995001  0.7499070465667407
  0.6659083079302682  0.6663670081260918  0.2492517972479532
  0.6673184747101077  0.6669090460049768  0.7498414685490402
  0.1667209505489081  0.0833984736764946  0.1881967167936323
  0.1663687033788928  0.0831718767709714  0.6880771750749853
  0.1667222799450809  0.5835008210232374  0.1882230249792884
  0.1665326825285288  0.5835083209664581  0.6874144427498364
  0.5000000000000000  0.0837640739586611  0.1882813182544945
  0.5000000000000000  0.0835999035933465  0.6876938786372406
  0.5000000000000000  0.5844932581809062  0.1847154124930910
  0.5000000000000000  0.5848949886414248  0.6893346647867499
  0.8332790344510871  0.0833984736764946  0.1881967167936323
  0.8336312816211024  0.0831718767709714  0.6880771750749853
  0.8332777050549143  0.5835008210232374  0.1882230249792884
  0.8334673024714663  0.5835083209664581  0.6874144427498364
 -0.0000000000000000  0.3332867861387447  0.1879883994840181
 -0.0000000000000000  0.3331996505700465  0.6881253796946455
 -0.0000000000000000  0.8334901011552858  0.1881191418657348
 -0.0000000000000000  0.8334103909497600  0.6880699787565344
  0.3323002118004477  0.3330974934673107  0.1846068361074590
  0.3315148954988379  0.3327977820959586  0.6897541614725391
  0.3334077743575806  0.8336572748028365  0.1880332050504797
  0.3332757812787173  0.8338247857996938  0.6879825913108683
  0.6676998181995547  0.3330974934673107  0.1846068361074590
  0.6684851345011644  0.3327977820959586  0.6897541614725391
  0.6665922556424217  0.8336572748028365  0.1880332050504797
  0.6667242487212851  0.8338247857996938  0.6879825913108683
  0.1640664482897786  0.4160463653020826  0.4377231843033506
  0.1660187307159912  0.4168001383568392  0.9378831764737681
  0.1668470518279242  0.9161653698488026  0.4379311271847826
  0.1665574598340588  0.9164288269825375  0.9381437014094383
  0.5000000000000000  0.4163169336543147  0.9361657802430073
  0.5000000000000000  0.9169096079086956  0.4380444388791403
  0.5000000000000000  0.9164184769637980  0.9380127017277792
  0.8359335367102165  0.4160463653020826  0.4377231843033506
  0.8339812542840038  0.4168001383568392  0.9378831764737681
  0.8331529331720710  0.9161653698488026  0.4379311271847826
  0.8334425251659362  0.9164288269825375  0.9381437014094383
 -0.0000000000000000  0.1655662818020274  0.4380112201001496
 -0.0000000000000000  0.1664047011831270  0.9382186741006068
 -0.0000000000000000  0.6668547792284597  0.4378541195398558
 -0.0000000000000000  0.6664597522654773  0.9379244270922930
  0.3323458185183171  0.1658480546993568  0.4378416496363710
  0.3333101773074552  0.1656897320910545  0.9377173918086631
  0.3332529996932214  0.6671947014164809  0.4376966662445611
  0.3326619175069276  0.6667453396168681  0.9375743769893471
  0.6676542114816855  0.1658480546993568  0.4378416496363710
  0.6666898526925475  0.1656897320910545  0.9377173918086631
  0.6667470303067811  0.6671947014164809  0.4376966662445611
  0.6673381124930746  0.6667453396168681  0.9375743769893471
  0.5000000000000000  0.4147174885794471  0.4366694899597481
 
  0.00000000E+00  0.00000000E+00  0.00000000E+00
  0.00000000E+00  0.00000000E+00  0.00000000E+00
  0.00000000E+00  0.00000000E+00  0.00000000E+00
  0.00000000E+00  0.00000000E+00  0.00000000E+00
  0.00000000E+00  0.00000000E+00  0.00000000E+00
  0.00000000E+00  0.00000000E+00  0.00000000E+00
  0.00000000E+00  0.00000000E+00  0.00000000E+00
  0.00000000E+00  0.00000000E+00  0.00000000E+00
  0.00000000E+00  0.00000000E+00  0.00000000E+00
  0.00000000E+00  0.00000000E+00  0.00000000E+00
  0.00000000E+00  0.00000000E+00  0.00000000E+00
  0.00000000E+00  0.00000000E+00  0.00000000E+00
  0.00000000E+00  0.00000000E+00  0.00000000E+00
  0.00000000E+00  0.00000000E+00  0.00000000E+00
  0.00000000E+00  0.00000000E+00  0.00000000E+00
  0.00000000E+00  0.00000000E+00  0.00000000E+00
  0.00000000E+00  0.00000000E+00  0.00000000E+00
  0.00000000E+00  0.00000000E+00  0.00000000E+00
  0.00000000E+00  0.00000000E+00  0.00000000E+00
  0.00000000E+00  0.00000000E+00  0.00000000E+00
  0.00000000E+00  0.00000000E+00  0.00000000E+00
  0.00000000E+00  0.00000000E+00  0.00000000E+00
  0.00000000E+00  0.00000000E+00  0.00000000E+00
  0.00000000E+00  0.00000000E+00  0.00000000E+00
  0.00000000E+00  0.00000000E+00  0.00000000E+00
  0.00000000E+00  0.00000000E+00  0.00000000E+00
  0.00000000E+00  0.00000000E+00  0.00000000E+00
  0.00000000E+00  0.00000000E+00  0.00000000E+00
  0.00000000E+00  0.00000000E+00  0.00000000E+00
  0.00000000E+00  0.00000000E+00  0.00000000E+00
  0.00000000E+00  0.00000000E+00  0.00000000E+00
  0.00000000E+00  0.00000000E+00  0.00000000E+00
  0.00000000E+00  0.00000000E+00  0.00000000E+00
  0.00000000E+00  0.00000000E+00  0.00000000E+00
  0.00000000E+00  0.00000000E+00  0.00000000E+00
  0.00000000E+00  0.00000000E+00  0.00000000E+00
  0.00000000E+00  0.00000000E+00  0.00000000E+00
  0.00000000E+00  0.00000000E+00  0.00000000E+00
  0.00000000E+00  0.00000000E+00  0.00000000E+00
  0.00000000E+00  0.00000000E+00  0.00000000E+00
  0.00000000E+00  0.00000000E+00  0.00000000E+00
  0.00000000E+00  0.00000000E+00  0.00000000E+00
  0.00000000E+00  0.00000000E+00  0.00000000E+00
  0.00000000E+00  0.00000000E+00  0.00000000E+00
  0.00000000E+00  0.00000000E+00  0.00000000E+00
  0.00000000E+00  0.00000000E+00  0.00000000E+00
  0.00000000E+00  0.00000000E+00  0.00000000E+00
  0.00000000E+00  0.00000000E+00  0.00000000E+00
  0.00000000E+00  0.00000000E+00  0.00000000E+00
  0.00000000E+00  0.00000000E+00  0.00000000E+00
  0.00000000E+00  0.00000000E+00  0.00000000E+00
  0.00000000E+00  0.00000000E+00  0.00000000E+00
  0.00000000E+00  0.00000000E+00  0.00000000E+00
  0.00000000E+00  0.00000000E+00  0.00000000E+00
  0.00000000E+00  0.00000000E+00  0.00000000E+00
  0.00000000E+00  0.00000000E+00  0.00000000E+00
  0.00000000E+00  0.00000000E+00  0.00000000E+00
  0.00000000E+00  0.00000000E+00  0.00000000E+00
  0.00000000E+00  0.00000000E+00  0.00000000E+00
  0.00000000E+00  0.00000000E+00  0.00000000E+00
  0.00000000E+00  0.00000000E+00  0.00000000E+00
  0.00000000E+00  0.00000000E+00  0.00000000E+00
  0.00000000E+00  0.00000000E+00  0.00000000E+00
  0.00000000E+00  0.00000000E+00  0.00000000E+00
  0.00000000E+00  0.00000000E+00  0.00000000E+00
  0.00000000E+00  0.00000000E+00  0.00000000E+00
  0.00000000E+00  0.00000000E+00  0.00000000E+00
  0.00000000E+00  0.00000000E+00  0.00000000E+00
  0.00000000E+00  0.00000000E+00  0.00000000E+00
  0.00000000E+00  0.00000000E+00  0.00000000E+00
  0.00000000E+00  0.00000000E+00  0.00000000E+00
  0.00000000E+00  0.00000000E+00  0.00000000E+00
  0.00000000E+00  0.00000000E+00  0.00000000E+00
  0.00000000E+00  0.00000000E+00  0.00000000E+00
  0.00000000E+00  0.00000000E+00  0.00000000E+00
  0.00000000E+00  0.00000000E+00  0.00000000E+00
  0.00000000E+00  0.00000000E+00  0.00000000E+00
  0.00000000E+00  0.00000000E+00  0.00000000E+00
  0.00000000E+00  0.00000000E+00  0.00000000E+00
  0.00000000E+00  0.00000000E+00  0.00000000E+00
  0.00000000E+00  0.00000000E+00  0.00000000E+00
  0.00000000E+00  0.00000000E+00  0.00000000E+00
  0.00000000E+00  0.00000000E+00  0.00000000E+00
  0.00000000E+00  0.00000000E+00  0.00000000E+00
  0.00000000E+00  0.00000000E+00  0.00000000E+00
  0.00000000E+00  0.00000000E+00  0.00000000E+00
  0.00000000E+00  0.00000000E+00  0.00000000E+00
  0.00000000E+00  0.00000000E+00  0.00000000E+00
  0.00000000E+00  0.00000000E+00  0.00000000E+00
  0.00000000E+00  0.00000000E+00  0.00000000E+00
  0.00000000E+00  0.00000000E+00  0.00000000E+00
  0.00000000E+00  0.00000000E+00  0.00000000E+00
  0.00000000E+00  0.00000000E+00  0.00000000E+00
  0.00000000E+00  0.00000000E+00  0.00000000E+00
  0.00000000E+00  0.00000000E+00  0.00000000E+00
  0.00000000E+00  0.00000000E+00  0.00000000E+00
