SiVH3 a=5.46836113565                   
   1.00000000000000     
    21.8734445426000015    0.0000000000000000    0.0000000000000000
     0.0000000000000000   21.8734445426000015    0.0000000000000000
     0.0000000000000000    0.0000000000000000   21.8734445426000015
   Si   H 
   511     3
Direct
  0.0624952173078258  0.0624930827063997  0.0624964190479618
  0.1874567010895706  0.1874498064219966  0.0625218946146791
  0.1874581318333021  0.0625016459414629  0.1874613211216554
  0.0625153597349831  0.1874499749689586  0.1874606374386324
 -0.0000039914410849 -0.0000041128237816 -0.0000039233978143
  0.1249812678684276  0.1249776967632086 -0.0000133662123726
  0.1249821379459370 -0.0000234169204904  0.1249839417319430
 -0.0000168000116162  0.1249779169153594  0.1249835592483262
  0.0624809048581543  0.0624625070519829  0.3124533712019623
  0.1874593287140395  0.1874398239013571  0.3124536840658048
  0.1874629372646249  0.0624571942585265  0.4374848597541475
  0.0624784959472566  0.1874461420189986  0.4374857924746435
 -0.0000398987356118 -0.0000513019951917  0.2499984764974476
  0.1249580238184572  0.1249452290367970  0.2499494253077686
  0.1249439688168860  0.0000089176266589  0.3749652243914883
  0.0000310141592783  0.1249251975772479  0.3749643216110927
  0.0624418929104097  0.0624203515165917  0.5625360983918478
  0.1872854001465257  0.1872676272407070  0.5625738516410906
  0.1873893623086383  0.0623784174713947  0.6875670432002211
  0.0623945634806243  0.1873789266948136  0.6875676106592419
 -0.0000069755484886 -0.0000371315090028  0.5000165600554275
  0.1248833214028617  0.1248635084065660  0.4999738704615074
  0.1249118838673337 -0.0000768715106501  0.6250358325446169
 -0.0000540535253704  0.1248910636874034  0.6250394991004391
  0.0624646007039355  0.0624606318840609  0.8125205261415462
  0.1874368641212282  0.1874306833021802  0.8125525655942920
  0.1874823807594206  0.0624613826703642  0.9375046406551623
  0.0624697244238535  0.1874822926915157  0.9375027665435710
 -0.0000291177343089 -0.0000411206596041  0.7499885725908347
  0.1249569936740971  0.1249455112913229  0.7500383408214591
  0.1249905049377355 -0.0000305400895566  0.8749933025398208
 -0.0000235060904942  0.1249852372530736  0.8749968469084599
  0.0624814691779302  0.3124514489694993  0.0624900301185780
  0.1874720805188798  0.4374709242155816  0.0624965425085483
  0.1874591161853409  0.3124372493486666  0.1874688203795146
  0.0624853077221017  0.4374704249423535  0.1874797584844592
 -0.0000353662386193  0.2499968716100935 -0.0000295824872614
  0.1249464640119998  0.3749600266192995  0.0000461307411390
  0.1249600188325462  0.2499413808309947  0.1249662787327400
  0.0000351795875704  0.3749604649864043  0.1249547444681588
  0.0624675433743410  0.3124638690651505  0.3124821305519455
  0.1874851628790645  0.4374680683339826  0.3124837328280752
  0.1874746054246835  0.3124404563526059  0.4375052313482353
  0.0624175363336331  0.4374632753644423  0.4374904487321201
  0.0000557672713450  0.2499306359354911  0.2499397024963955
  0.1249736223744016  0.3749332918950126  0.2499740592198449
  0.1249669617083941  0.2499426231624786  0.3749506417905141
 -0.0000350385657258  0.3749562254419280  0.3749674353652322
  0.0624090899198968  0.3124201874392243  0.5625235586446165
  0.1873280448754645  0.4373875781877887  0.5625496213895352
  0.1872756966335979  0.3123047945869875  0.6875790380391824
  0.0624105343924311  0.4374679025988468  0.6875265843509377
 -0.0000361447870312  0.2499174574389118  0.4999915689005793
  0.1248890766585817  0.3749112418181482  0.4999832958231069
  0.1248225982585735  0.2498439336395668  0.6250403222554654
 -0.0000568103329797  0.3749659360338387  0.6250094780396310
  0.0624081711621030  0.3124247133057341  0.8125550317276602
  0.1868771557957666  0.4373768131019898  0.8130772807618859
  0.1874258162255366  0.3124264417511121  0.9376016728333924
  0.0623272946456322  0.4374415794661475  0.9376572816096563
 -0.0000386241825604  0.2499274171187967  0.7500473510834543
  0.1248417110002437  0.3749312681414715  0.7500725967820396
  0.1249642276763980  0.2499659066130184  0.8750293769103323
 -0.0000499075198749  0.3749713677390718  0.8750342886364767
  0.0624494272256422  0.5625228934970452  0.0624605028633433
  0.1874059316704487  0.6875440587340280  0.0624170294256335
  0.1873027330974900  0.5625427757454089  0.1873114431312800
  0.0624094779302021  0.6875435459598649  0.1874120751316453
 -0.0000102462775050  0.5000114384619555  0.0000054354435112
  0.1249149574671962  0.6250299417475790 -0.0000400737575779
  0.1248926898477402  0.4999588494485754  0.1249027505647786
 -0.0000511400158739  0.6250280086107919  0.1249262607985177
  0.0624213669841630  0.5624946925017560  0.3124521404636572
  0.1872985687197141  0.6875325830231480  0.3123449482063035
  0.1873419367359614  0.5625009487102645  0.4374327495153653
  0.0624189258769382  0.6874938705211220  0.4374878963092212
 -0.0000306521760098  0.4999802384334584  0.2499440907311113
  0.1248393175988713  0.6250117698075515  0.2498796880279647
  0.1248977183370120  0.4999538749222296  0.3749436662360787
 -0.0000524508416017  0.6249896423364322  0.3749800278362201
  0.0624296563866250  0.5624727670255193  0.5624942816954706
  0.1873149699346282  0.6875385921804665  0.5625202449066559
  0.1873116322186304  0.5624936562790036  0.6875756536368236
  0.0623502311104944  0.6875056484237900  0.6875187429600544
 -0.0000716631383906  0.4999818708367007  0.4999960092854929
  0.1248950129301047  0.6249946950940297  0.4999868236486616
  0.1248877936141289  0.4999655942402991  0.6250248304440094
 -0.0000708588530935  0.6249839503195691  0.6249912783506713
  0.0623753772799515  0.5624938884550508  0.8125032548871192
  0.1874512689806447  0.6874761631506363  0.8124775070829658
  0.1874200601243580  0.5625088421062662  0.9375259037038385
  0.0624241104917385  0.6875024463785273  0.9374284350797916
 -0.0000895088482607  0.4999851112559736  0.7499922593637530
  0.1248490732158005  0.6250308697300941  0.7500081213348467
  0.1246182638546166  0.5000318287276235  0.8753076824085358
 -0.0001189079015267  0.6250275802364592  0.8749314717879508
  0.0624742712966053  0.8125055038900717  0.0624762935968975
  0.1874900653400749  0.9374832708488133  0.0624811797676688
  0.1874565619661682  0.8125174999390307  0.1874598086915901
  0.0624768071044658  0.9374843998162634  0.1874900984461124
 -0.0000302791592768  0.7499844258439734 -0.0000243335950227
  0.1249920514721241  0.8749857338997050 -0.0000210799512902
  0.1249659633773835  0.7500212506356660  0.1249719965586864
 -0.0000246804418879  0.8749840315869530  0.1249946571612810
  0.0624204564205407  0.8125163779635609  0.3124400346338166
  0.1874349930598062  0.9375654133274075  0.3124373022276838
  0.1869015892768818  0.8130261914237208  0.4373984772218911
  0.0623332782181143  0.9376126862548710  0.4374496711522999
 -0.0000376781126409  0.7500229251416467  0.2499464787999097
  0.1249694009781438  0.8749986698839337  0.2499765526514009
  0.1248566053577860  0.7500373217168093  0.3749512326367108
 -0.0000492732018401  0.8749946265897411  0.3749787165910527
  0.0623776824659316  0.8124723649965078  0.5625002909654628
  0.1874182865129949  0.9374883399824856  0.5625185227285261
  0.1874519810475117  0.8124510402044476  0.6874893352379750
  0.0624183086544786  0.9374042050398939  0.6875062157393267
 -0.0000872632747355  0.7499659183163463  0.4999931297003776
  0.1246294279835029  0.8752637658173084  0.5000383811899908
  0.1248525843711021  0.7499855436021393  0.6250392349658218
 -0.0001168749825180  0.8749047889611595  0.6250265018034552
  0.0624773441327665  0.8124818292384914  0.8124891271354836
  0.1874648662751365  0.9374457432697804  0.8125069423784163
  0.1874694355174111  0.8124882997261041  0.9374665553078599
  0.0624974064791680  0.9374948234024627  0.9374992797690940
 -0.0000871004103003  0.7500050151718323  0.7500109809399006
  0.1249740939118782  0.8749642168496399  0.7499956787549065
  0.1249731515401363  0.7499902228763806  0.8749781227100547
 -0.0000110051807337  0.8749866028730873  0.8749878970631059
  0.3124528244114961  0.0624620719734275  0.0624906495360315
  0.4374810980802320  0.1874491390717629  0.0624912239577693
  0.4374800721869046  0.0624602327534578  0.1874744391445199
  0.3124482587925557  0.1874403342929577  0.1874683424648670
  0.2499979279697135 -0.0000502595165691 -0.0000322715131257
  0.3749628822726685  0.1249254270122289  0.0000436621961278
  0.3749638289854744  0.0000102651639742  0.1249545563823278
  0.2499467358607108  0.1249461224164603  0.1249647241834414
  0.3124749717416893  0.0624438324049360  0.3124809052140032
  0.4374948284336266  0.1874500078626389  0.3124797774526857
  0.4374785602159394  0.0623875150033338  0.4374873236748206
  0.3124637350834935  0.1874459152984448  0.4375086110259018
  0.2499375917996829  0.0000355089407071  0.2499408976793093
  0.3749466335106556  0.1249478946335680  0.2499719819925765
  0.3749636508113603 -0.0000620945925128  0.3749674289326254
  0.2499609773963177  0.1249448002012435  0.3749527030607055
  0.3124319034373250  0.0623838524332839  0.5625221307557157
  0.4374136266234886  0.1872930659389835  0.5625550459240082
  0.4374762231742101  0.0623815966952666  0.6875299158020297
  0.3123201244967962  0.1872563820602887  0.6875806214046338
  0.2499320056905043 -0.0000620157579012  0.4999909492606101
  0.3749311366789239  0.1248589937908692  0.4999872530850483
  0.3749738674182942 -0.0000826810540995  0.6250080885842255
  0.2498596587622076  0.1248024400671231  0.6250413255322932
  0.3124265398379140  0.0623889328430570  0.8125543130187165
  0.4373861831814555  0.1868598547215223  0.8130808681001453
  0.4374443227965900  0.0623044335210843  0.9376549800425354
  0.3124280666275494  0.1874137017360502  0.9376033292428322
  0.2499363239114430 -0.0000593358640523  0.7500427680079776
  0.3749404633412915  0.1248201529275788  0.7500756604069317
  0.3749754223112604 -0.0000730381759705  0.8750297393558052
  0.2499677666344625  0.1249509141313800  0.8750279610823215
  0.3124770247283182  0.3124646597039734  0.0624798343379860
  0.4374827952842566  0.4374649333228513  0.0624324885819064
  0.4374928763414805  0.3124426923371195  0.1874932522521009
  0.3124733677090672  0.4374663325603639  0.1875004903010040
  0.2499367377772736  0.2499302190349157  0.0000659601549550
  0.3749636898642337  0.3749562412223369 -0.0000214744345769
  0.3749445609489778  0.2499439847407436  0.1249803033680330
  0.2499657635760690  0.3749323977136476  0.1249856487442639
  0.3123260738161981  0.3123127019554451  0.8127278363128617
  0.4373619920595549  0.4373425885031670  0.8125832331250309
  0.4374719382172945  0.3124373171471414  0.9375221492448964
  0.3124475432279504  0.4374656741868024  0.9375203918976646
  0.2499106210461562  0.2498940518079807  0.7500508696883305
  0.3747731865476097  0.3747465603686292  0.7502848359114077
  0.3749371404377067  0.2498419978110794  0.8751542882709842
  0.2498577583055865  0.3749283050141922  0.8751522480427617
  0.3124461211816177  0.5624953593902350  0.0624338057716299
  0.4374837909378195  0.6874922650211174  0.0624333427785549
  0.4374196803339304  0.5624986483213974  0.1873593922847950
  0.3123362585341093  0.6875320886965486  0.1873069545479175
  0.2499367444862635  0.4999804838048524 -0.0000179714509311
  0.3749760095496493  0.6249903416505316 -0.0000396349604230
  0.3749337169408613  0.4999519274308887  0.1249129664412753
  0.2498708153923524  0.6250115492551510  0.1248485090796605
  0.3123693988057909  0.5624933449683314  0.8126117174166939
  0.4374254376240275  0.6875507360483073  0.8126018990335313
  0.4374714642874911  0.5624760211009620  0.9374653385919546
  0.3124575077788994  0.6875328487273619  0.9375383735867674
  0.2490337730499953  0.5000147801847553  0.7509166363798204
  0.3749395220744521  0.6250362950524232  0.7501261104429630
  0.3749396922634169  0.4999548381128990  0.8750163399840926
  0.2499424028969926  0.6250423297374678  0.8750656589641873
  0.3124388327107390  0.8125169252202451  0.0624296976209053
  0.4374484015656310  0.9376166183727898  0.0623422177030983
  0.4373935040663330  0.8130281303382495  0.1869060629916134
  0.3124366382387365  0.9375645478019879  0.1874413253779996
  0.2499415754001863  0.7500253012803726 -0.0000276263141880
  0.3749766218181665  0.8749972700310860 -0.0000379295887192
  0.3749462134824923  0.7500361618459321  0.1248667402529899
  0.2499755687509092  0.8749992876417889  0.1249763375215307
  0.3123454543646827  0.8126730698013576  0.3123524516741189
  0.4374772818508732  0.9374767723911231  0.3124563848879785
  0.4373712426920767  0.8125281027148474  0.4373805313135047
  0.3124513522149369  0.9374777984525917  0.4374802333368669
  0.2499259299379657  0.7500079679177046  0.2499343934089487
  0.3749410436351319  0.8751053015658934  0.2498741022315032
  0.3747823606818039  0.7502255161842191  0.3747951148266357
  0.2498660958514901  0.8751065212553578  0.3749454705738845
  0.3123787227311869  0.8125671202927066  0.5625168589232438
  0.4374698987623102  0.9374248091334079  0.5624896337528692
  0.4374293052398244  0.8125655825851439  0.6875757393854987
  0.3124531508868729  0.9375020605636581  0.6875513066085130
  0.2490557872036245  0.7508584468303822  0.5000424950314153
  0.3749406614485541  0.8749707661721193  0.4999731954041847
  0.3749459279274077  0.7500855910427299  0.6250660017091910
  0.2499435350440724  0.8750286694442023  0.6250523410950946
  0.3124688999875952  0.8124510095247913  0.8124783936091113
  0.4374770657116052  0.9374617497819153  0.8125331532675709
  0.4374795310095981  0.8125010736043763  0.9374985109547664
  0.3124736983366202  0.9374340401503727  0.9374635538266574
  0.2499737364488324  0.7499486208407525  0.7499697845146860
  0.3749478954685272  0.8750194245197511  0.7500466444802044
  0.3749494078938515  0.7500247853124205  0.8750530827957191
  0.2499722013735209  0.8749506310916955  0.8749686183508461
  0.5625316687625677  0.0624254955046128  0.0624549063575709
  0.6875588923150671  0.1873866330155892  0.0624079720016711
  0.6875598442039050  0.0623831187698106  0.1873982707781823
  0.5625632888212748  0.1872757019052136  0.1873024420263252
  0.5000148865682189 -0.0000321169714949  0.0000028082761293
  0.6250370707579939  0.1248941552482743 -0.0000419696596047
  0.6250322313873944 -0.0000754012023994  0.1249217663357813
  0.4999689541636518  0.1248688595686745  0.1248973923179430
  0.5625128415076674  0.0623877547266399  0.3124416914421430
  0.6875659163062020  0.1872617307830755  0.3123315047547852
  0.6875189678716446  0.0623846400709497  0.4374829234699811
  0.5625392890649837  0.1872977765592464  0.4374284459793640
  0.4999869436572318 -0.0000605453407646  0.2499406130064555
  0.6250325302132862  0.1248067383407192  0.2498696843733436
  0.6250015979131827 -0.0000812451003335  0.3749787618708193
  0.4999772634018104  0.1248621893017185  0.3749418069409364
  0.5624884393531757  0.0623970602050622  0.5624954245018299
  0.6875749906156884  0.1872777249356049  0.5625276611277452
  0.6875202985310958  0.0623226413440291  0.6875250327273725
  0.5625188032332814  0.1872772444640894  0.6875871260351375
  0.4999931186493219 -0.0001016205901461  0.4999976722579000
  0.6250248462721252  0.1248555112294159  0.4999946046932892
  0.6249946275947630 -0.0000977919486400  0.6249972258713830
  0.4999871577016932  0.1248530308236365  0.6250350013420743
  0.5625003018848626  0.0623483586241098  0.8125084214524138
  0.6874930598483879  0.1874301461590014  0.8124869099318772
  0.6875073123662190  0.0624066008298003  0.9374280722675857
  0.5625169452846491  0.1874010668041797  0.9375278519054157
  0.4999929365338452 -0.0001161337799447  0.7499955620915293
  0.6250485547945621  0.1248173127850210  0.7500235655935302
  0.6250305024243946 -0.0001407978269704  0.8749368799288630
  0.5000400508155851  0.1245953382382178  0.8753096311012820
  0.5625143630241649  0.3124258140340899  0.0624260052225568
  0.6875139852099867  0.4374703430375387  0.0624277503378777
  0.6875608786551866  0.3123124943677761  0.1872961546856759
  0.5625302927369485  0.4373902969184549  0.1873504002078934
  0.4999881878148583  0.2499194477267442 -0.0000210102904620
  0.6250033543600253  0.3749664820613998 -0.0000424061467840
  0.6250293877870352  0.2498499754360307  0.1248398082794884
  0.4999716019872598  0.3749125363620939  0.1249070668985162
  0.5625115015747205  0.3123480504869157  0.8126183345536639
  0.6875752585268485  0.4374110277832857  0.8126094643943523
  0.6875489741455386  0.3124470139241565  0.9375407594268481
  0.5624860280516432  0.4374618127884972  0.9374678063119879
  0.5000376615379686  0.2490056464514345  0.7509224929775413
  0.6250667547342905  0.3749115456061212  0.7501391426129818
  0.6250594596513342  0.2499195282651379  0.8750732180431327
  0.4999725115141367  0.3749201247318476  0.8750204088963102
  0.5624864235503669  0.5624722397494119  0.0624459549386231
  0.6875118933094455  0.6875025984912023  0.0623634189703240
  0.6875584835173815  0.5624900762884232  0.1873293733816035
  0.5625083085196783  0.6875332859515887  0.1873311593516282
  0.4999902219275962  0.4999810479188619 -0.0000567404335313
  0.6249859016799189  0.6249809235163326 -0.0000575865538921
  0.6250096493436450  0.4999617064883816  0.1249076507184040
  0.4999760747417510  0.6249898173521278  0.1249124697901605
  0.5623737993416508  0.5623560293844476  0.8124615235172683
  0.6872788155960258  0.6872666997992798  0.8122124866880929
  0.6874570668661606  0.5624715824254514  0.9374401489259667
  0.5624754212802840  0.6874441882151303  0.9374378608693735
  0.4998321867251622  0.4998003417569112  0.7500703053323552
  0.6246793055867171  0.6246580083128231  0.7495895298069331
  0.6249724162025009  0.4999540942803299  0.8749629345454445
  0.4999698947786193  0.6249534801472559  0.8749589355829471
  0.5624972921529006  0.8124700233401658  0.0623908538601795
  0.6875038854236909  0.9374043370636116  0.0624269303494650
  0.6874810633486517  0.8124464470540739  0.1874625297085134
  0.5625146053799208  0.9374880133471829  0.1874272021380320
  0.4999890851994189  0.7499642857080124 -0.0000741054255631
  0.6250251647149493  0.8749022425844086 -0.0001062180279956
  0.6250308582609926  0.7499778758164832  0.1248680137194423
  0.5000343243317642  0.8752658950927341  0.1246379071587803
  0.5625079304864323  0.8125649824640070  0.3123881285137847
  0.6875435560481281  0.9375014472711898  0.3124581020289429
  0.6875638492438686  0.8125623796012981  0.4374357268524212
  0.5624848354188619  0.9374235807129360  0.4374745680849993
  0.5000320103087655  0.7508608765444018  0.2490639026200447
  0.6250440128766027  0.8750257473373328  0.2499546877885390
  0.6250510617249688  0.7500802837915655  0.3749586955572048
  0.4999645574099917  0.8749688345027475  0.3749503886244884
  0.5623737860356198  0.8124179643525581  0.5623824407787527
  0.6874560097115532  0.9374011132880142  0.5624783604221830
  0.6872772654597401  0.8121880512965031  0.6872834528444783
  0.5624764241350545  0.9374020724176081  0.6874622758122791
  0.4998320266963102  0.7500100357477569  0.4998472037767158
  0.6249634957056587  0.8749178985397802  0.4999748390679679
  0.6246789830702454  0.7495546201358386  0.6246900683910072
  0.4999668128580765  0.8749198085918127  0.6249727981904738
  0.5624977745250532  0.8125873331843778  0.8126135667661010
  0.6874926987225655  0.9373433453477634  0.8124022349272909
  0.6874920195383931  0.8123847695968950  0.9373646126916326
  0.5625201253975127  0.9374885879058596  0.9375210362247387
  0.4998828328290030  0.7501797419149205  0.7502111839649354
  0.6249567995001140  0.8748353632351034  0.7498855173267917
  0.6249564449712119  0.7498647173210785  0.8748639920012231
  0.4999804876032058  0.8750461173513148  0.8750786502272686
  0.8125155463993151  0.0624639283270865  0.0624697290636083
  0.9374958374405079  0.1874848328113904  0.0624761367235745
  0.9374981231953743  0.0624640726463379  0.1874850411180979
  0.8125406736122031  0.1874378074252546  0.1874460073168325
  0.7499871426499811 -0.0000417381187562 -0.0000232587076268
  0.8749943939502663  0.1249856440366452 -0.0000204815210411
  0.8749888994548287 -0.0000306975859068  0.1249938025455279
  0.7500325546231392  0.1249493873541572  0.1249648704422264
  0.8125421248518748  0.0623925250485238  0.3124310241418901
  0.9375907400804192  0.1874179082042719  0.3124313157597456
  0.9376459489062554  0.0623011761239771  0.4374468973255399
  0.8130722826535185  0.1868592131590427  0.4373923799681305
  0.7500349992369305 -0.0000588256367482  0.2499418201884133
  0.8750174175861622  0.1249533830626842  0.2499711316019974
  0.8750177816144085 -0.0000731327339883  0.3749776137407295
  0.7500647720469672  0.1248237753623574  0.3749467866553725
  0.8124978622810629  0.0623492695936972  0.5625027621079463
  0.9375165374849086  0.1873991865593066  0.5625202063659676
  0.9374189273947049  0.0624039602971305  0.6875089805080545
  0.8124776652629573  0.1874305614975497  0.6874973831173707
  0.7499866376258766 -0.0001152084166531  0.4999954556421757
  0.8753014378081561  0.1245926405604095  0.5000423805712116
  0.8749270763617122 -0.0001407870115624  0.6250305790522512
  0.7500150159467815  0.1248186858944996  0.6250518609140266
  0.8124908016115967  0.0624671601296810  0.8124936153129891
  0.9374593243577957  0.1874588822901220  0.8125096389656503
  0.9374977610306539  0.0624957472292481  0.9374990268484620
  0.8125028539811215  0.1874607147502228  0.9374671040238772
  0.7500164482350532 -0.0001056361259167  0.7500187505805402
  0.8749827691786263  0.1249556267386110  0.7500055537583492
  0.8749911249607517 -0.0000167653506659  0.8749915688834655
  0.7500034280226807  0.1249555175175221  0.8749881164939400
  0.8125409107974412  0.3124294788984272  0.0624228756663233
  0.9376395008272531  0.4374429267254328  0.0623434161787064
  0.9375895392347703  0.3124292947246837  0.1874331964321163
  0.8130535562848443  0.4373800711655556  0.1868995281735555
  0.7500407320434153  0.2499301052366195 -0.0000280860570805
  0.8750211986517964  0.3749719949888217 -0.0000377240020408
  0.8750196309243099  0.2499686985610430  0.1249719721035609
  0.7500577023680089  0.3749337609331777  0.1248595784749139
  0.8127103564068975  0.3123204235280233  0.3123372777263802
  0.9375058803873509  0.4374674590396317  0.3124537649267790
  0.9375076998843161  0.3124385935578614  0.4374767165004249
  0.8125653126533372  0.4373454347114188  0.4373745822040256
  0.7500363642854304  0.2498997199683381  0.2499236939389829
  0.8751374662847877  0.3749296411074401  0.2498675159147600
  0.8751384753438248  0.2498451938145156  0.3749427113954257
  0.7502661132742517  0.3747497945562342  0.3747884275794042
  0.8126065077884977  0.3123488587852492  0.5625198510732694
  0.9374542019676738  0.4374613910226040  0.5624905581132370
  0.9375298754427718  0.3124451066014397  0.6875557256123244
  0.8125994601152536  0.4374111954839280  0.6875849647461114
  0.7509155202909635  0.2490005284229003  0.5000487232152866
  0.8750053001966738  0.3749200928053546  0.4999791081318965
  0.8750627848553835  0.2499188701168167  0.6250638580977913
  0.7501294833330351  0.3749118780516838  0.6250777742290616
  0.8124774780251527  0.3124571001089124  0.8124866275053392
  0.9374897173770942  0.4374728288138218  0.8125365776175274
  0.9374541380962713  0.3124719536376835  0.9374652502162706
  0.8125245944756715  0.4374737075919294  0.9375010107217286
  0.7499760390476551  0.2499498262565916  0.7499835521416478
  0.8750502491169585  0.3749336960955458  0.7500592961720638
  0.8749713344948212  0.2499625646517052  0.8749781161477627
  0.7500506044267148  0.3749350054058795  0.8750595538265360
  0.8124912120083193  0.5624925802486609  0.0623888924360832
  0.9374217404454182  0.6875009766751450  0.0624317736550929
  0.9375116119351505  0.5625080583264745  0.1874298019603212
  0.8124644816228824  0.6874723268196016  0.1874618230309262
  0.7499818251965514  0.4999839738694560 -0.0000754982644498
  0.8749213180177133  0.6250254901091933 -0.0001069197648582
  0.8752881313528340  0.5000299244393883  0.1246372851934835
  0.7499943066194974  0.6250247314319610  0.1248651466372538
  0.8125920295591800  0.5624920694709312  0.3123846581242971
  0.9375245082259170  0.6875306962340334  0.3124615774870786
  0.9374510402314762  0.5624755827503464  0.4374755667025462
  0.8125853507038592  0.6875463279873036  0.4374347897159176
  0.7508869850046962  0.5000118482059716  0.2490631794833494
  0.8750484486130650  0.6250366057874738  0.2499549481691862
  0.8749994638765420  0.4999518278220557  0.3749500429074604
  0.7501044690070207  0.6250312881131544  0.3749567032395090
  0.8124472802206920  0.5623559380655628  0.5623825254122585
  0.9374249938367508  0.6874437109979655  0.5624774205443550
  0.9374283272695155  0.5624722723624329  0.6874631797495040
  0.8122042058507092  0.6872669592698561  0.6872832997336061
  0.7500507034610290  0.4997992436370007  0.4998486474622162
  0.8749442533458217  0.6249499495125291  0.4999768912894824
  0.8749500436884551  0.4999530677147856  0.6249794798627905
  0.7495777653621393  0.6246595166476475  0.6246880226733541
  0.8126065577196553  0.5624918650973167  0.8126152546851299
  0.9373597414313062  0.6874906284679011  0.8124015377077306
  0.9375104744222891  0.5625186579734475  0.9375210467045501
  0.8123968737100226  0.6874900867495874  0.9373674285938163
  0.7502036526639535  0.4998672632940142  0.7502134801223621
  0.8748548689752457  0.6249515990136597  0.7498864927721631
  0.8750690884252215  0.4999746314814764  0.8750799987087396
  0.7498802458288132  0.6249511724761518  0.8748652666056660
  0.8124848578231914  0.8124797188928711  0.0624825344731157
  0.9374976884957257  0.9374950626771364  0.0624982211502693
  0.9374601697403023  0.8124868915305662  0.1874726254387079
  0.8124999149265305  0.9374454830391723  0.1874691765782897
  0.7500056516751684  0.7500013156759578 -0.0000780590075564
  0.8749856078651922  0.8749848097524601 -0.0000081676323971
  0.8749691736649073  0.7499853395063397  0.1249825841630676
  0.7499891154764752  0.8749593595650956  0.1249829840214608
  0.8124653885409350  0.8124471406412598  0.3124746969727126
  0.9374537594215013  0.9374331853779203  0.3124745581303460
  0.9374846933610095  0.8124993289480785  0.4374816388486395
  0.8125215954638946  0.9374608319444225  0.4374798638231017
  0.7499564485464513  0.7499419657616470  0.2499856300535030
  0.8749585174649015  0.8749458420897287  0.2499770946149838
  0.8750377085787303  0.7500185861423794  0.3749567323166658
  0.7500339835152838  0.8750168706409186  0.3749548584998790
  0.8126034449859058  0.8125860529314558  0.5625006208886832
  0.9375094541203244  0.9374874552635497  0.5625209070361492
  0.9373567713341807  0.8123851472526076  0.6874927885068781
  0.8123961278334781  0.9373417578287218  0.6874938844650803
  0.7501986907393686  0.7501786273758330  0.4998903185081920
  0.8750665004631109  0.8750448587131279  0.4999833179623448
  0.8748544502027730  0.7498642977784316  0.6249589245130721
  0.7498775747693930  0.8748347055540017  0.6249596774285463
  0.8123857840796656  0.8123811834273046  0.8123878974777928
  0.9374578704507854  0.9374540727607448  0.8124731650050104
  0.9374594858635878  0.8124708715934993  0.9374613936101998
  0.8124724046325345  0.9374546318590820  0.9374602527512539
  0.7498306599960174  0.7498195647738938  0.7498361689961366
  0.8749172086023365  0.8749067678969309  0.7499816120839425
  0.8749139547825259  0.7499788917485162  0.8749188499786242
  0.7499807522955275  0.8749056797106116  0.8749211433727847
  0.3125290957058989  0.3124989976893552  0.3125441349036203
  0.4377396047183708  0.4376873979948276  0.3125618826608723
  0.4377319021247180  0.3124793788791672  0.4377612321381283
  0.3125334042864005  0.4376868013894077  0.4377608457099984
  0.2499808976597118  0.2499634874318182  0.2499894402643995
  0.3750804354631000  0.3750458264354969  0.2501082537701735
  0.3750718989769124  0.2500515303767316  0.3750897560086047
  0.2500883332115817  0.3750444854441130  0.3750927915688905
  0.3121252015187525  0.3120975013242107  0.5626435408502796
  0.4337354040706985  0.4336883787916013  0.5684841009526008
  0.4372904145203205  0.3109587984911087  0.6888931730250915
  0.3109899794473300  0.4372610313242198  0.6888946354073526
  0.2497287550850545  0.2497027442776617  0.5000748387669146
  0.3745838422381432  0.3745371013025032  0.5001941836865900
  0.3748586498753753  0.2496641240421591  0.6251538410442672
  0.2496934420423411  0.3748326277502090  0.6251547206587258
  0.3121454450412509  0.5625821618440757  0.3121590600072904
  0.4372995634237505  0.6888222361907343  0.3110251618487547
  0.4337605719592060  0.5683686356641686  0.4337709405657206
  0.3110183610887404  0.6888136123881317  0.4373155245147984
  0.2497423401380884  0.5000351986300162  0.2497549901413483
  0.3748659342606424  0.6251002712415208  0.2497224809481642
  0.3745824455245758  0.5001190797527795  0.3746050619699733
  0.2497093631913972  0.6250990147756834  0.3748799444672824
  0.3122413678332590  0.5624307033979503  0.5624962103627140
  0.4371642823165923  0.6876913455074978  0.5623190363282823
  0.4371628869304212  0.5622673023539553  0.6877535768157106
  0.3124862035736796  0.6874511371995214  0.6874853479868016
  0.2497232909819229  0.5000105193459620  0.5000689489178701
  0.3729077925887589  0.6269691211779209  0.4999371799815189
  0.3728848934267435  0.4998765740090545  0.6270626874644378
  0.2498720802418428  0.6249902297957152  0.6250256738442713
  0.5626219247930109  0.3121076795930035  0.3121537608114441
  0.6888563568891715  0.4372683041233733  0.3110271816560916
  0.6888861394138928  0.3109495991684389  0.4373037718174351
  0.5684528051442771  0.4336777441713169  0.4337929453597906
  0.5000620499974974  0.2497093003736583  0.2497513496413220
  0.6251335432736447  0.3748372002611603  0.2497181086111439