SiVH3 a=5.46836113565                   
    1.000000000000000     
    21.8734445426000015    0.0000000000000000    0.0000000000000000
     0.0000000000000000   21.8734445426000015    0.0000000000000000
     0.0000000000000000    0.0000000000000000   21.8734445426000015
   Si   H 
   511     3
Direct
  0.0624659522688795  0.0624475689030101  0.0624750895034780
  0.1874678300295816  0.1874485022498717  0.0625591344787400
  0.1874686701245580  0.0625278407829209  0.1874780910383709
  0.0625488575473472  0.1874486779328013  0.1874775373864702
  0.9999594690407853  0.9999416515977285  0.9999682902382161
  0.1249708624924697  0.1249529323895429  0.0000219912590015
  0.1249715080148484  0.9999938737509451  0.1249803315391633
  0.0000126218292329  0.1249531857030376  0.1249798661118131
  0.0625227902562440  0.0625004666174261  0.3124443658120476
  0.1875557393711100  0.1875336581087038  0.3125265688633715
  0.1875048757638152  0.0625256549396766  0.4374939946570414
  0.0625485516165406  0.1874823830038131  0.4374939019100304
  0.9999989036140862  0.9999789355603641  0.2499591377274523
  0.1250387700114781  0.1250184006453933  0.2500008620438209
  0.1249758140670218  0.0000589848546352  0.3749739064799754
  0.0000818581483043  0.1249535759794712  0.3749735990478645
  0.0624389223293435  0.0624161392624302  0.5625241219022358
  0.1873487136803932  0.1873269216177821  0.5625965897173580
  0.1873630995779839  0.0623648988664404  0.6875621711309668
  0.0623863573204142  0.1873425109401507  0.6875628279894089
  0.9999687531986436  0.9999437654898027  0.5000113205073947
  0.1249268570669020  0.1249046549564350  0.5000082009550670
  0.1248816886652503  0.9999081762792158  0.6250357879652771
  0.9999312598627730  0.1248594755756719  0.6250369147884274
  0.0624052683241038  0.0623866136610391  0.8125045203323088
  0.1874026590465102  0.1873832850319448  0.8125767826047237
  0.1874284368647961  0.0624354705727770  0.9375181529495912
  0.0624544265071116  0.1874107938058842  0.9375181024987295
  0.9998995693618825  0.9998794386610388  0.7499856182677080
  0.1249167504081368  0.1248964035168726  0.7500503646980576
  0.1249240871153134  0.9999338372856471  0.8750042922901163
  0.9999526332079646  0.1249058270154850  0.8750048898770618
  0.0625215582133462  0.3124179877850952  0.0625324528757144
  0.1875043215272221  0.4374652887616737  0.0625592939636957
  0.1875548887793983  0.3124966114420646  0.1875657356077571
  0.0625477216283962  0.4374653509087931  0.1875149996475156
  0.9999989408360787  0.2499331885665829  0.0000089523713577
  0.1249747418149210  0.3749469918006837  0.0000919972831434
  0.1250384230353370  0.2499733797858810  0.1250483422304265
  0.0000805589396756  0.3749471676451140  0.1249852409051766
  0.0625598980104910  0.3124730775108931  0.3125039068412264
  0.1875963086997911  0.4375487250386956  0.3125827168209827
  0.1875964283751775  0.3125503074099936  0.4375799252355028
  0.0624775518208098  0.4374586443526346  0.4374908746784638
  0.0001083893031420  0.2499361851240181  0.2499647571974596
  0.1250822643521233  0.3750076960673452  0.2500636579243473
  0.1250828343651026  0.2500323522592485  0.3750368004005240
  0.0000122989895934  0.3749418967747323  0.3749726825623760
  0.0624556213619340  0.3124175107365371  0.5625166340341277
  0.1873716315054604  0.4374419949222049  0.5625988243019956
  0.1872630329479894  0.3122900057373412  0.6876121782853698
  0.0624084943133358  0.4374379556681581  0.6875348415105649
  0.0000025998391911  0.2499072982788333  0.4999978804851052
  0.1249496743399281  0.3749558539941971  0.5000297688729460
  0.1248307518080061  0.2498371306050750  0.6250588762430740
  0.9999610646212785  0.3749248035396224  0.6250038978926313
  0.0624066911293987  0.3123797866122707  0.8125743066098118
  0.1868838581140439  0.4373615091355851  0.8130820899625919
  0.1874110629155834  0.3123816804605784  0.9376443326438516
  0.0623488136912415  0.4374131228332828  0.9376780797324858
  0.9999559924279944  0.2498779946934639  0.7500580667154525
  0.1248279593513461  0.3749082385768244  0.7500963643888465
  0.1249476858452037  0.2499187474342853  0.8750618792396317
  0.9999635898125205  0.3749293889591598  0.8750592802088853
  0.0624376995620321  0.5624972707051086  0.0624489705008711
  0.1873639280030115  0.6875333003548121  0.0623974751034747
  0.1873475620184719  0.5625664292998267  0.1873581745954610
  0.0623871077264491  0.6875328609340340  0.1873742555952136
  0.9999652942053476  0.4999852415058877 -0.0000220738435079
  0.1248811054769138  0.6250090846392348  0.9999409277919599
  0.1249251971636691  0.4999800366395331  0.1249360383154879
  0.9999296765289143  0.6250084998663324  0.1248921799862158
  0.0624559709329980  0.5624845595754603  0.3124505852533125
  0.1872642906754518  0.6875790799823596  0.3123220850547477
  0.1873720971362097  0.5625655409636937  0.4374740321637426
  0.0624088581424829  0.6875015604039878  0.4374683085777628
  0.0000014982421554  0.4999683893215577  0.2499396968124922
  0.1248311013846955  0.6250276168957414  0.2498690155486880
  0.1249495342152974  0.4999981864486603  0.3749875032006868
  0.9999603091604788  0.6249717140849785  0.3749556346547099
  0.0624335527528054  0.5624644135588530  0.5624966032146597
  0.1872919066149212  0.6875910081812043  0.5625449389821515
  0.1872919112142861  0.5625133109157544  0.6876251903138715
  0.0623423626885936  0.6874894623616232  0.6875195231645596
  0.9999608101544004  0.4999496295122167  0.4999813290003906
  0.1248884786379847  0.6250327953020307  0.5000095575239445
  0.1248882829985987  0.4999787737259453  0.6250654804910528
  0.9999155136514374  0.6249542054703856  0.6249840832865242
  0.0623614469439175  0.5624649868456356  0.8125193771424140
  0.1874207317772850  0.6874754258376125  0.8125097514046573
  0.1873983587389967  0.5624808024884780  0.9375446444021519
  0.0623676510905674  0.6874619243717860  0.9374031825663066
  0.9999046585620971  0.4999502021358233  0.7499975978469066
  0.1248276326377140  0.6250269773013342  0.7500467001379105
  0.1246187138056534  0.5000019667714853  0.8753121282128272
  0.9998291354995444  0.6249773919799272  0.8749082044631730
  0.0624063490695422  0.8124764908486872  0.0624155405394278
  0.1874294865717772  0.9374883953852480  0.0624651700226617
  0.1874042606435833  0.8125456396279093  0.1874137460310422
  0.0624558749127564  0.9374883408480520  0.1874382040831657
  0.9998988003264865  0.7499589075632401  0.9999086700058817
  0.1249243077441482  0.8749767887455595  0.9999617236301150
  0.1249167248641604  0.7500217026513781  0.1249267444052258
  0.9999524992664047  0.8749765004147444  0.1249332752561123
  0.0624082088932921  0.8125409737760282  0.3124083818007048
  0.1874128203634437  0.9376101197618947  0.3124110559840789
  0.1868874607737499  0.8130449966977653  0.4373913253780096
  0.0623517196503324  0.9376423033463287  0.4374399805452724
  0.9999549106692293  0.7500266882211805  0.2499078644527853
  0.1249481733300969  0.8750301876911009  0.2499466474445455
  0.1248285723834773  0.7500631506869591  0.3749375434587043
  0.9999641063490984  0.8750260261286811  0.3749558081110422
  0.0623621661618377  0.8124866357743992  0.5624920405896066
  0.1873986952429812  0.9375098203872988  0.5625089934006087
  0.1874206637047256  0.8124779585631211  0.6875048443968692
  0.0623671455028280  0.9373723280020662  0.6874882528974737
  0.9999046321031588  0.7499654578780532  0.4999783725767090
  0.1246214992735416  0.8752763186092474  0.5000291898862361
  0.1248278311188060  0.7500149014702965  0.6250556820519627
  0.9998298665482012  0.8748765705019115  0.6250033613309650
  0.0623874414593080  0.8124339144103713  0.8124612355497681
  0.1873955307758545  0.9374271594704700  0.8125067345303534
  0.1873962527431043  0.8124778402467341  0.9374573517594521
  0.0624110285491235  0.9374335459553944  0.9374607478464837
  0.9998362828403152  0.7499467451012818  0.7499745692997891
  0.1248977175311577  0.8749365037972507  0.7499953018332051
  0.1248976798428660  0.7499680458106666  0.8749656353376569
  0.9999008833999676  0.8749235576780167  0.8749504637289389
  0.3124357021144147  0.0625005064366815  0.0625330006435731
  0.4374845687634171  0.1874826325893241  0.0625595189685176
  0.4374844301980941  0.0625260978302689  0.1875156985281067
  0.3125166809772970  0.1875334923902191  0.1875664160634336
  0.2499506156804218  0.9999792060791579  0.0000086125514518
  0.3749650143161917  0.1249536584535820  0.0000923467291813
  0.3749651466602520  0.0000593008389553  0.1249860607872785
  0.2499918829327001  0.1250184506702309  0.1250485627416976
  0.3124941965637935  0.0625375911839238  0.3125046567917652
  0.4375697330752253  0.1875743116063500  0.3125842113398321
  0.4374801269668742  0.0624540587352170  0.4374909625022227
  0.3125723177044639  0.1875741545580120  0.4375806923961483
  0.2499560911062146  0.0000866008583672  0.2499655639909300
  0.3750275999003104  0.1250612891921812  0.2500648157786403
  0.3749627621219883  0.9999888377107549  0.3749728706928853
  0.2500539680795956  0.1250612094553848  0.3750373749374984
  0.3124391637420537  0.0624326483367161  0.5625159571334385
  0.4374633374540399  0.1873487694312163  0.5625988555983661
  0.4374579406383955  0.0623855353540890  0.6875343878944959
  0.3123107313526480  0.1872420163508144  0.6876113432174517
  0.2499293182060087  0.9999787139774500  0.4999975885241462
  0.3749771881319720  0.1249272045680269  0.5000298617131821
  0.3749453898150334  0.9999374414676934  0.6250031379441479
  0.2498584419481081  0.1248090128655029  0.6250584252253856
  0.3123980592949544  0.0623854670443782  0.8125731360799364
  0.4373811912315880  0.1868628575541369  0.8130808438994381
  0.4374307880910900  0.0623277237360915  0.9376772109942835
  0.3124004183235353  0.1873905054409815  0.9376443504917890
  0.2498978585803526  0.9999338703879757  0.7500565922361137
  0.3749275493176100  0.1248064642824628  0.7500955656740036
  0.3749471109578028  0.9999421683514009  0.8750582642073069
  0.2499369865722496  0.1249275322707272  0.8750613150850240
  0.3124939140715101  0.3124728481353158  0.0625712829617725
  0.4374803656506964  0.4374587093704674  0.0624893662577194
  0.4375699214542055  0.3125499193229450  0.1876084176575161
  0.3125724917577620  0.4375483557400585  0.1876080162431182
  0.2499554046230921  0.2499359416094799  0.0001192929643562
  0.3749625718148131  0.3749419696304128  0.0000239182636854
  0.3750274057643447  0.2500321305709802  0.1250938488901569
  0.2500535747126621  0.3750075236616240  0.1250933759952349
  0.3122959814264333  0.3122748096811692  0.8127649663934493
  0.4373430688703284  0.4373215576553460  0.8126316316811101
  0.4374462528346374  0.3123879019905600  0.9375579284538048
  0.3124089835179844  0.4374259192374604  0.9375581712187590
  0.2498800079911139  0.2498589536070035  0.7500794161484962
  0.3747460117148353  0.3747234265994463  0.7503394851040931
  0.3749089857045745  0.2498025498121602  0.8751827932355185
  0.2498241564618133  0.3748889445345818  0.8751828232638056
  0.3124399912819187  0.5624849168665826  0.0624673016998688
  0.4374584512824046  0.6875019239169866  0.0624199716375992
  0.4374636659690673  0.5625657340158569  0.1873835274785695
  0.3123117307995416  0.6875796612701918  0.1872741595783513
  0.2499290217485485  0.4999685125782046  0.0000132552539449
  0.3749455568018119  0.6249720790454814  0.9999718191678451
  0.3749771697602269  0.4999982521134686  0.1249608210128394
  0.2498583996847277  0.6250279569506215  0.1248414600664473
  0.3123366539242115  0.5624904279980875  0.8126656305655255
  0.4373944049062528  0.6875571474044397  0.8126056250025654
  0.4374316711370572  0.5624367900068260  0.9374923171495257
  0.3124180391680986  0.6875172358313570  0.9375444204342654
  0.2490363494770294  0.5000282050342317  0.7509365037966543
  0.3748728577345685  0.6250701307001189  0.7501805518960244
  0.3748846435173049  0.4999243009464499  0.8750572359469684
  0.2498986595104568  0.6250224888927892  0.8750916177471901
  0.3123992586958309  0.8125418252995057  0.0624183277360107
  0.4374311782067810  0.9376439719279135  0.0623611110941320
  0.4373816243485160  0.8130470024563694  0.1868962321237875
  0.3124019176219213  0.9376103509726732  0.1874227572510917
  0.2498980194865000  0.7500275124781040  0.9999655603582592
  0.3749470847128708  0.8750268534693378  0.9999743319573414
  0.3749280132455774  0.7500638734505817  0.1248386807427696
  0.2499377012273831  0.8750305990488897  0.1249580022341966
  0.3122977951626432  0.8127299568374768  0.3123080390060801
  0.4374468308418262  0.9375224923404258  0.3124196598170862
  0.4373438445629098  0.8125968784957072  0.4373541118152868
  0.3124094984672399  0.9375221342474990  0.4374568107606471
  0.2498803269317264  0.7500470406949317  0.2498905560180919
  0.3749095733762168  0.8751478135641650  0.2498353071179179
  0.3747464551143790  0.7503043352978042  0.3747570839078562
  0.2498250006509309  0.8751475855662851  0.3749192634733499
  0.3123378389241797  0.8126304448255882  0.5625215478713587
  0.4374315442454952  0.9374566726385082  0.5624682710884066
  0.4373950035436918  0.8125710754241644  0.6875894273889995
  0.3124172509255250  0.9375100090858656  0.6875478516725204
  0.2490399476343200  0.7508979371292900  0.5000589780451787
  0.3748849699163764  0.8750218104787720  0.4999561824065507
  0.3748736752148452  0.7501455845056805  0.6251022673118245
  0.2498988875117351  0.8750574293205571  0.6250516081458100
  0.3124257351845060  0.8124809747158135  0.8125127442343070
  0.4374449642399565  0.9374699106791975  0.8125460701258088
  0.4374452781908015  0.8125140504614288  0.9375034836846001
  0.3124130870863314  0.9374621686616570  0.9374934396343428
  0.2499219670593176  0.7499770841313343  0.7500080681989590
  0.3749157017268051  0.8750277886502686  0.7500566650285956
  0.3749156016987683  0.7500251272963506  0.8750614123553891
  0.2499102737353124  0.8749643453279967  0.8749939996164683
  0.5625150613040962  0.0624174023343885  0.0624494999072694
  0.6875524262817827  0.1873439830220080  0.0623975497130852
  0.6875525968982883  0.0623653176374383  0.1873728146263508
  0.5625864011211044  0.1873276099180155  0.1873608940949963
  0.5000027349931524  0.9999453997842335 -0.0000218403934616
  0.6250275624164403  0.1248608861086314  0.9999416263938025
  0.6250266449044841  0.9999085637512037  0.1248912793542368
  0.4999989613612254  0.1249053674314211  0.1249379689405283
  0.5625054508811598  0.0624328001981223  0.3124499776417560
  0.6876009846843066  0.1872412655527726  0.3123211975694710
  0.6875237817997901  0.0623852741842173  0.4374680083646547
  0.5625880260677744  0.1873485963946735  0.4374743170493197
  0.4999878827471941  0.9999788528969052  0.2499395861867058
  0.6250484988519681  0.1248086566059985  0.2498687217446686
  0.6249927216067533  0.9999372787592102  0.3749553620297082
  0.5000194512887138  0.1249270248718507  0.3749878803688073
  0.5624859064831306  0.0624099953881065  0.5624965873564910
  0.6876146736462840  0.1872676330562789  0.5625454032083101
  0.6875101993699229  0.0623194797681166  0.6875202664388032
  0.5625348573970590  0.1872683553640378  0.6876253501545773
  0.4999709054550425  0.9999367215704537  0.4999813010054593
  0.6250552015754158  0.1248650456865994  0.5000100600962495
  0.6249750437806328  0.9998923720528073  0.6249849525864301
  0.4999997477809306  0.1248654137008468  0.6250656069333813
  0.5624835189331654  0.0623391745133080  0.8125198398895892
  0.6874954573412920  0.1873997932499123  0.8125100197009520
  0.6874797762810887  0.0623476510826483  0.9374033616798199
  0.5624997733213583  0.1873774060497719  0.9375440865001486
  0.4999693537719678  0.9998820400027919  0.7499977024366663
  0.6250476148748898  0.1248048476031857  0.7500480529743228
  0.6249953663265621  0.9998078984777892  0.8749093798328401
  0.5000205452891130  0.1245975588723472  0.8753117083657661
  0.5625060662908257  0.3124182961407359  0.0624674746737664
  0.6875234952882802  0.4374382836190029  0.0624203752766975
  0.6876004404279661  0.3122910676531640  0.1872759210828641
  0.5625876557126369  0.4374421986385956  0.1873839860341985
  0.4999882106490622  0.2499079258253617  0.0000138082620357
  0.6249932294997707  0.3749252061307788  0.9999724632512428
  0.6250481575792290  0.2498380256037548  0.1248427608240844
  0.5000193019894449  0.3749560396340745  0.1249614361680604
  0.5625111859270094  0.3123150930323668  0.8126648454445471
  0.6875785975803631  0.4373742132683764  0.8126047726498793
  0.6875379468475875  0.3123980127156941  0.9375439777272757
  0.5624577699183170  0.4374106734841374  0.9374921302295259
  0.5000491718309003  0.2490147048396970  0.7509348661841878
  0.6250922883335496  0.3748511802498332  0.7501802295920681
  0.6250429793922435  0.2498773990590778  0.8750916488842490
  0.4999459718925808  0.3748628831041865  0.8750572458664447
  0.5624859346878276  0.5624644918261232  0.0624452168290601
  0.6875094017432758  0.6874892057322100  0.0623533643423011
  0.6876138492713425  0.5625132415568652  0.1873037662042329
  0.5625346314778727  0.6875912603191248  0.1873030238342264
  0.4999708078642952  0.4999497183598516  0.9999726697507901
  0.6249737537464930  0.6249537954901437  0.9999268203732709
  0.6250542782707640  0.4999786838192862  0.1249001784167004
  0.4999992918361493  0.6250329573677984  0.1248996395216837
  0.5623533956811798  0.5623323592955400  0.8124753195397296
  0.6872049816709215  0.6871847310884596  0.8121402285280322
  0.6874316532731367  0.5624151067316234  0.9374275276314357
  0.5624343324874678  0.6874109043917768  0.9374276713559853
  0.4998098619063649  0.4997879729215665  0.7501005867820675
  0.6246068522993627  0.6245846109822691  0.7494976849356668
  0.6249428760521034  0.4998877397639383  0.8749581986945706
  0.4999087839514119  0.6249210822218064  0.8749582006126341
  0.5624829308493160  0.8124867843642968  0.0623727077749045
  0.6874793519544808  0.9373726082977503  0.0623768653065938
  0.6874950491198416  0.8124781439967032  0.1874306762079272
  0.5624995672223714  0.9375108333899679  0.1874085289610805
  0.4999689547236233  0.7499655396134262  0.9999155202976198
  0.6249945945938764  0.8748763757510785  0.9998400245465329
  0.6250457091429046  0.7500145699523677  0.1248385570093891
  0.5000201598807551  0.8752778500217773  0.1246306288834800
  0.5625114281310697  0.8126315594567919  0.3123477102856964
  0.6875376536123163  0.9375106455998139  0.3124268567502487
  0.6875789455365342  0.8125719838263756  0.4374046088777996
  0.5624579182549234  0.9374569049552628  0.4374418083447372
  0.5000490951259929  0.7509005937809092  0.2490484629230948
  0.6250416479448808  0.8750581265653417  0.2499087229056300
  0.6250916457519423  0.7501465244306023  0.3748835736232251
  0.4999456676340961  0.8750220709818588  0.3748953151746068
  0.5623543480952882  0.8124420506955228  0.5623646207577688
  0.6874324092930437  0.9373939203874930  0.5624442791455199
  0.6872052607880733  0.8121095605434638  0.6872154350372237
  0.5624347094970924  0.9373938294505820  0.6874427268995329
  0.4998108606584886  0.7500656430894429  0.4998211421773576
  0.6249429312649646  0.8749238653061195  0.4999190230306040
  0.6246073453714270  0.7494652640099700  0.6246183432375916
  0.4999087598467079  0.8749237185951811  0.6249536341673961
  0.5624144742553312  0.8124669878519775  0.8124992720615476
  0.6874342761235973  0.9372785164634510  0.8123648195276485
  0.6874337647008594  0.8123340070409910  0.9373090889661445
  0.5624776972590665  0.9374334052116042  0.9374660008413954
  0.4998357585845730  0.7500443807396714  0.7500785110231687
  0.6248918434375523  0.8747685036208810  0.7498371228222499
  0.6248913215539819  0.7498047488946791  0.8748008897650597
  0.4999525054623123  0.8749730915938820  0.8750057191592666
  0.8124951080681301  0.0623872283670208  0.0624148065154003
  0.9375078815438118  0.1874112282367548  0.0624644402067330
  0.9375084802266794  0.0624358277332361  0.1874374812911692
  0.8125662952195867  0.1873840507444109  0.1874126643326856
  0.7499767087625916  0.9998796784209886  0.9999089146155121
  0.8749955317942499  0.1249061128799679  0.9999618365780186
  0.8749949815929595  0.9999339396185620  0.1249329855389171
  0.7500407186493817  0.1248970870487906  0.1249262966136928
  0.8125629842923566  0.0623853896457945  0.3124071643253148
  0.9376334060480767  0.1873909081013299  0.3124098664356674
  0.9376679340982136  0.0623262345793906  0.4374394858278189
  0.8130722325430016  0.1868603950250679  0.4373909578331683
  0.7500467888260215  0.9999336814617418  0.2499070090869794
  0.8750509943145006  0.1249277937522531  0.2499458776047904
  0.8750482694684125  0.9999416312488032  0.3749555584944390
  0.7500855888317921  0.1248056438718593  0.3749372400510724
  0.8125095732551636  0.0623385861773413  0.5624926546386009
  0.9375337314434075  0.1873760904511997  0.5625093861466492
  0.9373929441258377  0.0623466876272292  0.6874889669854082
  0.8124996885971856  0.1873993146405946  0.6875054302740328
  0.7499874512318778  0.9998815937206009  0.4999786522553644
  0.8753027936148360  0.1245953857257975  0.5000297811439967
  0.8748990763622463  0.9998072208807691  0.6250042568018572
  0.7500379169879572  0.1248042767356859  0.6250572560732551
  0.8124527838332670  0.0623682807364530  0.8124622632791986
  0.9374467540291873  0.1873770216580750  0.8125075750847163
  0.9374516107434380  0.0623929856989802  0.9374607931685818
  0.8124971572129551  0.1873776465229823  0.9374574319862098
  0.7499667234475241  0.9998149654906087  0.7499761341372470
  0.8749572630838620  0.1248775009966783  0.7499966599565429
  0.8749420030471757  0.9998822970022069  0.8749509294113054
  0.7499871864544007  0.1248780108343330  0.8749670488244883
  0.8125624201681430  0.3123807416520555  0.0624184912305067
  0.9376647590505096  0.4374134462027238  0.0623615001009547
  0.9376327955182687  0.3123822352999833  0.1874214125770858
  0.8130682018701143  0.4373618750520892  0.1868977937323491
  0.7500474008138127  0.2498789357555688  0.9999665815326394
  0.8750473651114182  0.3749296543917243  0.9999749815941646
  0.8750511636165208  0.2499193094742580  0.1249575861429609
  0.7500844253081822  0.3749086985179509  0.1248401832135973
  0.8127538352950964  0.3122753130195586  0.3123068368109888
  0.9375462689622390  0.4374260392371346  0.3124196916764772
  0.9375464894538845  0.3123875294351978  0.4374565119715372
  0.8126206635363596  0.4373213786292648  0.4373542344867904
  0.7500686439495486  0.2498590181201193  0.2498907934795526
  0.8751712443908595  0.3748890834404623  0.2498349993007330
  0.8751716707988670  0.2498023472673688  0.3749190005897337
  0.7503286017740792  0.3747232270543769  0.3747572833467225
  0.8126552235209725  0.3123139869337626  0.5625218567677558
  0.9374806418555948  0.4374103828484514  0.5624684074210090
  0.9375332581994636  0.3123970414871000  0.6875487779480658
  0.8125946758896188  0.4373738776602205  0.6875897517363396
  0.7509271490505032  0.2490111066968324  0.5000601373278938
  0.8750462990675644  0.3748624020559797  0.4999566905304045
  0.8750817927434429  0.2498761427130156  0.6250532401207664
  0.7501709066132920  0.3748504036951031  0.6251032767902862
  0.8125025356915897  0.3124064353726047  0.8125132760111569
  0.9374920545072764  0.4374267433555450  0.8125464186236988
  0.9374824561218355  0.3123956349547934  0.9374939838727859
  0.8125349505612356  0.4374270652249427  0.9375030635551397
  0.7499986217497535  0.2499012175915639  0.7500087665698463
  0.8750510522659355  0.3748957145364880  0.7500578552787193
  0.8749848626046749  0.2498920018838275  0.8749953808250351
  0.7500466937926098  0.3748962517999537  0.8750613856544303
  0.8125080341735401  0.5624647298436115  0.0623729430303525
  0.9373931726465164  0.6874615597321729  0.0623777935406950
  0.9375327337207321  0.5624806698793475  0.1874095189243564
  0.8124991860502198  0.6874752824831791  0.1874311678824244
  0.7499864428095466  0.4999501287335509  0.9999160919213913
  0.8748972690265984  0.6249769671828533  0.9998402872699174
  0.8752986264508066  0.5000017584716274  0.1246318918992250
  0.7500355714141886  0.6250263883884722  0.1248390182882305
  0.8126536187841389  0.5624905523971213  0.3123485931830699
  0.9375330440318711  0.6875168577239774  0.3124280377811479
  0.9374806876232392  0.5624367802066257  0.4374421354058351
  0.8125942957608613  0.6875574385814081  0.4374049436728100
  0.7509218766057584  0.5000279138743939  0.2490512996252938
  0.8750797202884991  0.6250218279888441  0.2499098599872586
  0.8750454775573712  0.4999241232987123  0.3748956838093343
  0.7501686514708197  0.6250703559424484  0.3748842265050094
  0.8124646782954402  0.5623326796368853  0.5623641763969854
  0.9374166639112206  0.6874111405176793  0.5624439924833478
  0.9374164778876619  0.5624152851136073  0.6874423480232381
  0.8121301428003508  0.6871852052122467  0.6872147772819160
  0.7500896529319415  0.4997880136859253  0.4998210886259191
  0.8749468819368353  0.6249211645147986  0.4999191061179167
  0.8749472410110638  0.4998877040240662  0.6249537646156379
  0.7494871655718388  0.6245855523892212  0.6246171358081641
  0.8124878077166754  0.5623957780498376  0.8124982795186274
  0.9372991296002233  0.6874160179878871  0.8123638306554948
  0.9374540896957320  0.5624603659490131  0.9374651812421463
  0.8123538865432651  0.6874156925845613  0.9373093868479692
  0.7500663898107095  0.4998153889351946  0.7500770297744059
  0.8747899536738956  0.6248725393207928  0.7498362273040500
  0.8749942608379379  0.4999345922953076  0.8750052756431106
  0.7498258442106527  0.6248721441172990  0.8748007377528229
  0.8124519988196582  0.8124335330855845  0.0623968568001005
  0.9374517823619032  0.9374335692206194  0.0624199861115905
  0.9374479097769916  0.8124773682954384  0.1874054387258698
  0.8124972706148884  0.9374272465083932  0.1874046636620460
  0.7499648687802699  0.7499461253146943  0.9998466233435764
  0.8749413797103793  0.8749234360613850  0.9999099861450965
  0.8749555996611829  0.7499674776830402  0.1249075775902096
  0.7499859490841438  0.8749361440645875  0.1249071671881945
  0.8125022519450134  0.8124809027306051  0.3124351472898260
  0.9374836765708651  0.9374616912396051  0.3124217403386456
  0.9374927705839817  0.8125138215574113  0.4374543598536171
  0.8125358432855531  0.9374701023497426  0.4374539049994072
  0.7499976920426632  0.7499771039880671  0.2499318601229280
  0.8749840832856668  0.8749637023325527  0.2499191470778521
  0.8750501632747111  0.7500247776301708  0.3749253962710234
  0.7500461625079899  0.8750281912619842  0.3749248726502546
  0.8124887717422901  0.8124674721235517  0.5624237692643134
  0.9374556261300885  0.9374330731530985  0.5624863784394514
  0.9372990482266637  0.8123343889257196  0.6874427603777366
  0.8123548003082944  0.9372781877469459  0.6874434604376964
  0.7500675665143176  0.7500454402971716  0.4998455600253735
  0.8749951103327067  0.8749730098085635  0.4999612549807826
  0.8747903854890066  0.7498052829245749  0.6249007389039821
  0.7498265276087794  0.8747685508688613  0.6249014301339264
  0.8123138933584694  0.8122950999303257  0.8123231972294865
  0.9373790441726293  0.9373604835325591  0.8124371840315453
  0.9373790220946288  0.8124106391556903  0.9373881919141158
  0.8124283210646073  0.9373606045160088  0.9373882186294913
  0.7497628546127869  0.7497422782642276  0.7497729851993339
  0.8748497234555085  0.8748293655013308  0.7499340382233592
  0.8748488792504097  0.7499067733214558  0.8748588180790505
  0.7499250291631318  0.8748292298121845  0.8748593677781514
  0.3126409699548567  0.3126182877452076  0.3126524346292032
  0.4378396902990423  0.4378169007114428  0.3126821531560455
  0.4378393347995325  0.3126453637542386  0.4378525483878217
  0.3126690493732397  0.4378174943621400  0.4378500519759970
  0.2500962090836108  0.2500750004885461  0.2501067302799564
  0.3751890873095397  0.3751663892090309  0.2502389172932197
  0.3751882187229890  0.2502049894263552  0.3751999191130782
  0.2502269016862882  0.3751667128661331  0.3751989994729855
  0.3122339880293813  0.3122124256077823  0.5626966824826447
  0.4338804020800605  0.4338592814892728  0.5686029628449816
  0.4372624224411882  0.3109444253063314  0.6889428607795196
  0.3109665162728808  0.4372392702681527  0.6889456543887555
  0.2498295322131712  0.2498068958134427  0.5001398902310901
  0.3747384277016628  0.3747172676751474  0.5002897715719130
  0.3748525953348525  0.2496622952174482  0.6251963591240585
  0.2496843975719232  0.3748305639509891  0.6251976617561457
  0.3122319035778647  0.5626630570533893  0.3122425390829360
  0.4372628787218983  0.6889073700835101  0.3109799878236386
  0.4338823602194871  0.5685576296565652  0.4338886511370547
  0.3109720116747309  0.6889035027095746  0.4372744327426799
  0.2498271298699531  0.5001073648885332  0.2498382169740798
  0.3748522412522445  0.6251633129483715  0.2496952483096392
  0.3747334715887257  0.5002565840366958  0.3747440526898483
  0.2496848689053121  0.6251623563626505  0.3748632783250430
  0.3122290161191258  0.5625104774745262  0.5625474673445249
  0.4371055628824398  0.6877821129089795  0.5623192244651851
  0.4371042676441077  0.5622848467666349  0.6878192383021713
  0.3124238899250829  0.6874873187155690  0.6875218973678602
  0.2497603290309706  0.5000763105247030  0.5001100919734676
  0.3728427465407753  0.6270918312978235  0.4999456950666314
  0.3728358562668394  0.4999106491993019  0.6271367757337009
  0.2498180185607634  0.6250260253838931  0.6250600986838715
  0.5626848979914560  0.3122134058441834  0.3122487901689461
  0.6889292003493668  0.4372405739669076  0.3109839667805388
  0.6889363186447965  0.3109392602096264  0.4372728633870794
  0.5685914827080230  0.4338546487768895  0.4339015103918497
  0.5001293819772957  0.2498074020892797  0.2498428156676742
  0.6251851732785138  0.3748311146016355  0.2496982893156248