Si                                      
   1.00000000000000     
    21.8806751037877660    0.0000000000000000    0.0000000000000000
     0.0000000000000000   21.8806751037877660    0.0000000000000000
     0.0000000000000000    0.0000000000000000   21.8806751037877660
   Si   H 
   511     3
Direct
  0.0624023038020312  0.0625289198334187  0.0625642705361287
  0.0623668065734151  0.0623334836789127  0.5625445761866317
  0.0623673815717609  0.5625117822416854  0.0623679091812264
  0.0624641933247574  0.5624711805667673  0.5625097381341249
  0.5624620943222567  0.0623504379720714  0.0623810633412489
  0.5625050025067821  0.0626162611607697  0.5624920255860175
  0.5624889622464764  0.5624536239464675  0.0626482261960604
  0.5676095174158675  0.5664217907858671  0.5664201808113063
  0.1874407120504742  0.1874765908709008  0.0625576307769720
  0.1870027299163795  0.1869999863655494  0.5625450804419359
  0.1874483882984705  0.6875412569018096  0.0624389320287406
  0.1875053328301135  0.6874801164383015  0.5624613310537825
  0.6874218539623058  0.1875997530038802  0.0626405254722400
  0.6876341758393707  0.1876062956782931  0.5624606846992251
  0.6875428612888825  0.6874799725585206  0.0625348161245540
  0.6886295668196638  0.6885929478688055  0.5624323841888597
  0.1874418241206897  0.0625275755806243  0.1875132440139140
  0.1874498818630741  0.0624008640170786  0.6875726871451562
  0.1870038256570581  0.5625092417706412  0.1870321530557533
  0.1875062253976054  0.5624337570102540  0.6875114700319571
  0.6874200699270290  0.0626155233773673  0.1876296624463549
  0.6875518711614177  0.0624997152641100  0.6875157364870290
  0.6876230425016914  0.5624072689059574  0.1876414234131758
  0.6886123776162236  0.5623966563830862  0.6886226283909451
  0.0624572149043772  0.1875171287620816  0.1875464180510420
  0.0624339806758059  0.1874354353062984  0.6875629230075972
  0.0624307829955626  0.6875270267535214  0.1874769830633909
  0.0624781333908828  0.6874702434317399  0.6875023934432960
  0.5623379357729874  0.1872514750056666  0.1872834596680022
  0.5626546940103481  0.1876228047951898  0.6873280657152847
  0.5626463088681888  0.6872772075580826  0.1876558643031530
  0.5625092424624754  0.6880119961185187  0.6880434085757727
  0.9999851536532418  0.0000432778219235  0.0000158883933565
  0.0001069029858485  0.9999259436686287  0.4999511120902866
  0.0001094145892324  0.4999858835496056  0.9998909882621447
  0.9999493422369667  0.5000068542228888  0.4999822468588206
  0.5000492502078160  0.9999262507610638  0.9998937871623212
  0.5000337747597428  0.0000946337492067  0.4999670764647561
  0.5000180553366320  0.5000073735040544  0.0000499087428452
  0.1249618037212201  0.1250139392816578  0.0000190899472798
  0.1247136206908053  0.1247560033889243  0.4999320272090628
  0.1250135785343574  0.6250357757330747  0.9999338243714604
  0.1250089931121678  0.6249988261743198  0.4999353136780158
  0.6250351429799110  0.1250560196790858  0.0000651311921942
  0.6249512459395206  0.1252892418279217  0.4999390858229305
  0.6250145661717070  0.6249998185202941  0.0000485225830147
  0.6269602398740588  0.6263674093063969  0.4998779961745541
  0.1249617722814946  0.0000502649583325  0.1249864757903438
  0.1250155107801234  0.9999645762133156  0.6249945432813675
  0.1247127321670902  0.4999668374759807  0.1247202383707702
  0.1250092993267558  0.4999685559175759  0.6249742458368814
  0.6250334768860810  0.0001023894270276  0.1250265760957987
  0.6250226487431831  0.0000845734015442  0.6249671837483959
  0.6249391328525178  0.4999698195367586  0.1252380469788150
  0.6269468980723403  0.4999107764006823  0.6263154223430334
  0.9999524654067145  0.1250566830903708  0.1250299515696938
  0.0000088972917140  0.1249806327028722  0.6249835726177153
  0.0000063868334550  0.6250130742663060  0.1249503641062759
  0.9999853346028260  0.6250005197238053  0.6249680904271955
  0.5000793411784485  0.1248053878243809  0.1247618577820333
  0.5000112155326875  0.1251262447746768  0.6249624291870646
  0.4999947561391380  0.6250082012814531  0.1250748945578408
  0.5001844929204822  0.6257380456706869  0.6257064491232143
  0.0624320455995928  0.0625708649307981  0.3125193376854654
  0.0624498790902095  0.0624855921620338  0.8125698165214246
  0.0624126682890918  0.5624781554533342  0.3125085587279202
  0.0624852920283132  0.5624755502601957  0.8125183110841832
  0.5624306572066828  0.0626592412095874  0.3125868591511534
  0.5625280737654279  0.0625321420246721  0.8125191143388903
  0.5631258065969718  0.5615388829176808  0.3133362690191177
  0.5625438934596900  0.5624789448240222  0.8125395163808165
  0.1875154377118875  0.1875354426916616  0.3125164218411456
  0.1874276890379747  0.1874515151763134  0.8125718352213198
  0.1873575120203057  0.6875505233844450  0.3124621596964516
  0.1875248276172101  0.6874528933871460  0.8124738931767652
  0.6871601656937756  0.1878497376163395  0.3128382884818350
  0.6874834646637922  0.1875344351728998  0.8124856526177524
  0.6874332216878898  0.6871916752088865  0.3125657805660964
  0.6875374696743890  0.6875504837605888  0.8126418492837857
  0.1874815099414704  0.0625330914364426  0.4374712422782210
  0.1874296568720268  0.0624856939423850  0.9375498385379260
  0.1874600129743129  0.5624787931656385  0.4374556429113809
  0.1874804402234460  0.5624758365674651  0.9375133030122100
  0.6874127734263027  0.0626587853897362  0.4375690182633818
  0.6874804129532208  0.0625703042509684  0.9375682663273324
  0.6866621329180518  0.5615386961727964  0.4368730926071365
  0.6874910344938741  0.5624782958100027  0.9375862223182594
  0.0623756010037440  0.1875020024858429  0.4375180987054250
  0.0623981034739671  0.1875003953645873  0.9376018959034838
  0.0624325717008389  0.6874980055268551  0.4375026489944744
  0.0624935586194439  0.6875309301127501  0.9375057827503923
  0.5624405281999358  0.1879420907297771  0.4375592615263599
  0.5624813412710949  0.1875018726725344  0.9376241864259640
  0.5624888677322204  0.6873452792375616  0.4375115439413193
  0.5624964145576854  0.6874986962246297  0.9375660452157462
  0.9999311182694655  0.0000961477139825  0.2500049259486090
  0.0000147693800514  0.0000172022542841  0.7500058361852879
  0.9999161976215518  0.5000001683716562  0.2500031020427969
  0.9999917540345322  0.5000043975508603  0.7500062051114185
  0.5000302160508809  0.0001270385219669  0.2500058912887226
  0.5000416781708523  0.0000494389201720  0.7499897557607866
  0.4999478439108742  0.5000849003011538  0.2504738474128985
  0.5001462654172784  0.4998854348094071  0.7500209648684049
  0.1250210680057791  0.1250602325968373  0.2499930153997241
  0.1250065283610553  0.1249729083285018  0.7500077200734410
  0.1249206204756490  0.6250179865991470  0.2499064618495552
  0.1250340924506332  0.6249762774313012  0.7499340712240965
  0.6250068089429135  0.1251959565405869  0.2500646387592624
  0.6250445413610066  0.1250730585060253  0.7498771409190041
  0.6248890871645543  0.6244610182402681  0.2503308885678734
  0.6252001145734738  0.6250433913118769  0.7500966657367343
  0.1249919995090991  0.0000697059513755  0.3749393573734139
  0.1250053210129067  0.9999919522105074  0.8749953889749378
  0.1249962954031574  0.4999810539628911  0.3749233908503768
  0.1249228152301640  0.4999946731142799  0.8750770931683078
  0.6250091632845667  0.0001291244208659  0.3749913376795178
  0.6250616144907113  0.0000691610223598  0.8750092065931554
  0.6230673138375522  0.4970575856373713  0.3769338278551402
  0.6250771155799342  0.4999810806378662  0.8750041116370610
  0.9999356178183447  0.1250560681062538  0.3749654877471258
  0.9999821039684278  0.1250137047887065  0.8750392194094374
  0.9999507375611572  0.6249991363859735  0.3749860977219370
  0.0000666027074843  0.6250357021168895  0.8749869162298225
  0.5000623000556885  0.1252899299536807  0.3750497785973437
  0.5000682988043295  0.1247562486234202  0.8752870445268783
  0.5001233338796354  0.6263666689990757  0.3730417314963148
  0.5000649683695073  0.6249992950152574  0.8749908898241188
  0.0624358127643916  0.3124835541344595  0.0625941103140022
  0.0624172707054598  0.3124731714201516  0.5625220144665519
  0.0624463453243607  0.8125371383744309  0.0625279067842541
  0.0624804081251469  0.8124840503206414  0.5625048962128929
  0.5624201131605062  0.3125510053969620  0.0626865680751578
  0.5631395927863352  0.3133057285302385  0.5616136837869519
  0.5625237320684633  0.8124834760672215  0.0625685282434745
  0.5625521612860993  0.8125031314724467  0.5625050768533200
  0.1874733678743610  0.4374373269583316  0.0625525787807888
  0.1874610353836914  0.4374238661839911  0.5625184154928391
  0.1874296653399270  0.9375141219480199  0.0625265889912328
  0.1874866831740150  0.9374862747889807  0.5625024144574766
  0.6874065600375800  0.4375298052989649  0.0626881984909673
  0.6866851657412312  0.4368030473761948  0.5616249972443867
  0.6874760763758232  0.9375354692561331  0.0626066607646152
  0.6874955602255213  0.9375515300421924  0.5625092778358507
  0.1875124037306151  0.3124850075946952  0.1875570210231032
  0.1873551349560785  0.3124275242077417  0.6875891423681750
  0.1874278241402010  0.8125395757848892  0.1874915963454100
  0.1875271386779431  0.8124441964649165  0.6874795312891422
  0.6871554954288612  0.3128027992059828  0.1878821355825977
  0.6874531626160874  0.3125219543033211  0.6872565200080274
  0.6874724678120643  0.8124447545933720  0.1875746891097592
  0.6875412636636540  0.8126069877048891  0.6875810587962263
  0.0623755904241321  0.4374811832996812  0.1875288822754797
  0.0624408497148110  0.4374665256352657  0.6875421273869122
  0.0623919203887340  0.9375720963774086  0.1875419140563821
  0.0624930975704743  0.9374672177737651  0.6875619205732164
  0.5624193334952636  0.4375113294180721  0.1879750753961389
  0.5624772587417937  0.4374820661342085  0.6873850879457919
  0.5624830257178886  0.9375946607227235  0.1875346580884028
  0.5625051293002130  0.9375302737413094  0.6875287358648094
  0.9999367623889199  0.2500287206464904  0.0000643509744904
  0.9999200152996437  0.2500389494899764  0.4999782422871561
  0.0000127935376071  0.7500409649847910  0.9999879024788640
  0.9999841525755500  0.7500308971755842  0.4999663176314613
  0.5000224031949827  0.2500392454542890  0.0000806385822472
  0.4999756309058867  0.2505523416443936  0.5000259172108272
  0.5000338851010042  0.7500320486864638  0.0000148969329672
  0.5001545668812639  0.7500493757678086  0.4998461601523232
  0.1249851699994622  0.3749744552601939  0.0000326905391290
  0.1249977882996518  0.3749584509111727  0.4999559509864255
  0.1250046120810424  0.8750295610210514  0.9999622086223283
  0.1249313897632476  0.8751046037766770  0.4999525172119021
  0.6250056969706961  0.3750212833058200  0.0000837908419697
  0.6230945015172935  0.3769987332861149  0.4970435582836501
  0.6250582040068053  0.8750420216653580  0.0000408041141142
  0.6250789760251223  0.8750389832766032  0.4999470399618389
  0.1250184333050584  0.2500243797085631  0.1250236668228197
  0.1249210099127467  0.2499386346340415  0.6249919462695246
  0.1250050733958616  0.7500431789828070  0.1249441035691419
  0.1250344899590914  0.7499682038787725  0.6249371541415627
  0.6250045128496424  0.2501010548328253  0.1251482783043159
  0.6249066754492461  0.2503794621600974  0.6244381544042241
  0.6250340297202968  0.7499089113278643  0.1250397630999061
  0.6252025930993881  0.7501254585019552  0.6250098502635453
  0.9999376440704850  0.3749918480208336  0.1250178934308224
  0.9999599414982328  0.3750188860793386  0.6249834987044309
  0.9999767435874247  0.8750687408941076  0.1249890887914376
  0.0000629861220176  0.8750204934266250  0.6249946960609662
  0.5000453154752620  0.3750933339077918  0.1252291975247743
  0.5001090012993927  0.3730810314956372  0.6263372279507209
  0.5000688470053944  0.8753236174714019  0.1247282615535639
  0.5000740535949291  0.8750221086002341  0.6249596771360544
  0.0623660747883932  0.3124819620079435  0.3125133338293722
  0.0623956501201164  0.3124191251330970  0.8125857691264073
  0.0623894471127429  0.8125507804057861  0.3124589202177077
  0.0625174246879894  0.8125020016552256  0.8125363331616526
  0.5614900607852675  0.3128140655269647  0.3128621565000529
  0.5625526433427339  0.3124234905921668  0.8125710133355071
  0.5625564539842216  0.8125348336790239  0.3124495479659188
  0.5626024110873900  0.8127304092570782  0.8127622535657579
  0.1874294125967637  0.4374135079931349  0.3124488236097136
  0.1872321140437450  0.4373719182898341  0.8127672857522228
  0.1874190679556591  0.9375764272904306  0.3124552702427650
  0.1874635554664010  0.9374445657488053  0.8125355366302500
  0.6871419901187394  0.4384438444582699  0.3128562291318104
  0.6875505978092420  0.4374133842357253  0.8125702515838000
  0.6874848395088975  0.9376059134673724  0.3125145896370540
  0.6875445167359970  0.9375761119589896  0.8125809746592552
  0.1874288773463562  0.3124235535728275  0.4374468225364865
  0.1874140981435559  0.3124192941046147  0.9376037806090523
  0.1872372152455384  0.8127303480422157  0.4373969128003594
  0.1874625867056849  0.8125021731774922  0.9374817408735652
  0.6871377270851298  0.3128123993554155  0.4385085018233781
  0.6874861259009677  0.3124819149704052  0.9376333831970385
  0.6875498314868409  0.8125345854857926  0.4374428924961578
  0.6875406955895045  0.8125509436803426  0.9376096962908420
  0.0624367073523970  0.4374823423732863  0.4375220098457433
  0.0624782073698071  0.4374441491524763  0.9375214444430071
  0.0624732452879542  0.9374921169522068  0.4374758147505204
  0.0624451189099346  0.9375173381604043  0.9375544537218872
  0.5567977725008646  0.4431166583279875  0.4432024381079600
  0.5624775488357585  0.4374825051858693  0.9375623683275833
  0.5624878927730279  0.9375297008096624  0.4375118313278819
  0.5625233040133892  0.9374920432536840  0.9375263384198860
  0.9999472564930301  0.2500080018674140  0.2499765467861224
  0.9999890652877497  0.2499648756251105  0.7500174803133248
  0.9999814666345301  0.7500415632899191  0.2499364178411696
  0.0000943581936994  0.7500324707453814  0.7499946445544481
  0.5003479284585168  0.2498423979934188  0.2497788491165664
  0.5001043585503382  0.2492006558499398  0.7506905620450581
  0.5001072775351005  0.7507248906033794  0.2491643376386747
  0.5001696082483207  0.7503823489681096  0.7503495139044531
  0.1249390312624641  0.3749755681828475  0.2499684235169610
  0.1248963405841153  0.3749396284341557  0.7500580917312192
  0.1249607976970140  0.8750731295392313  0.2499427092803543
  0.1250639886641878  0.8749708958356379  0.7499643076498259
  0.6248969397682202  0.3751369012114623  0.2507064517647564
  0.6250259889686376  0.3750161325586205  0.7498718442468046
  0.6250537640750338  0.8751003035091429  0.2499774867509785
  0.6250980165188906  0.8751332211511453  0.7500457785733161
  0.1249403487336238  0.2500072404052247  0.3749429248828875
  0.1249597009620373  0.2499717222187385  0.8750409128477159
  0.1248957821104568  0.7500785223349240  0.3749059360462539
  0.1250623313774426  0.7500034811147245  0.8749379505517751
  0.6249082737257439  0.2507634277691224  0.3750921352450547
  0.6250574587937052  0.2500070386632629  0.8750605983217739
  0.6250211897046114  0.7499075823656014  0.3749790479307009
  0.6250947664595046  0.7500788052471705  0.8751042712486310
  0.9999164037114738  0.3750212149020982  0.3749947234056847
  0.9999677955569624  0.3749742646646652  0.8750157020075804
  0.9999591335368834  0.8750416712880948  0.3749425696618687
  0.0000386648309885  0.8750294136114718  0.8749959637829363
  0.5029580416043018  0.3770000897492025  0.3769080741193633
  0.5000445776610789  0.3749585635166213  0.8750027988836777
  0.5000535093553964  0.8750391821700205  0.3749216567838047
  0.5000478488408930  0.8751048134781598  0.8750687342328547
  0.3124456241361599  0.0625045032977454  0.0625422972282905
  0.3124838311426217  0.0625300341564170  0.5624842871366837
  0.3124676834092099  0.5624546197635567  0.0625472941612770
  0.3125022773659367  0.5623203817646214  0.5623522828010081
  0.8124188223000104  0.0625929313537270  0.0626252731967298
  0.8125343092269688  0.0625098580441872  0.5625305570841306
  0.8125324971843426  0.5624927823316170  0.0625428002048949
  0.8123345339640835  0.5623803005682362  0.5624399511712497
  0.4374621157479908  0.1874283254412035  0.0625363694588259
  0.4375788795797675  0.1876530044607492  0.5624212408707976
  0.4375050230744293  0.6874855402716520  0.0625557138339659
  0.4376544478951203  0.6874695460217310  0.5623449616207310
  0.9373803582631481  0.1875451334710831  0.0626195693477882
  0.9374631143155980  0.1874280397505004  0.5625376384493066
  0.9374530994078256  0.6875190317092148  0.0625464990975289
  0.9374417847785423  0.6874837602336754  0.5624930754749045
  0.4374692515551857  0.0625105999853659  0.1874655327787096
  0.4375150041799287  0.0625295488723410  0.6875161809127377
  0.4375582448193640  0.5623822014571900  0.1876627836716409
  0.4376473783299062  0.5623201242213582  0.6874971631509794
  0.9373744373667137  0.0625931558251906  0.1875810043680985
  0.9374576637052812  0.0625041324053228  0.6875539261182126
  0.9374559529590840  0.5624927195597778  0.1874670389684354
  0.9374506547921300  0.5624534283084159  0.6875305363132682
  0.3124978068374276  0.1875128058064135  0.1875416932958842
  0.3124008561307434  0.1873512513430526  0.6875990339420284
  0.3124005839651858  0.6875579285060383  0.1873886253082233
  0.3125943359088552  0.6873792173474484  0.6874049003063121
  0.8122863025212297  0.1876852965837656  0.1877126281595949
  0.8124584471216778  0.1875119313098494  0.6875030069356143
  0.8124418375284606  0.6874540512518053  0.1875574308867911
  0.8126108786449038  0.6875569954051386  0.6875983954039029
  0.2499946933054176  0.0000175730352723  0.9999862768859842
  0.2500112213070764  0.0000499282138549  0.4999589473196409
  0.2499936201917876  0.5000047999016033  0.0000077595852872
  0.2499798382961416  0.4998854483822797  0.4998544745073659
  0.7499961478681740  0.0000957873353897  0.0000696397146172
  0.7499948781238004  0.0001264698370349  0.4999705331986632
  0.7499973546597261  0.5000002722886947  0.0000839225842810
  0.7495251634758304  0.5000837152917015  0.5000524393092860
  0.3750169717971659  0.1249809736901284  0.9999919362014751
  0.3750391535077000  0.1251267174118453  0.4999897608149482
  0.3750315777528499  0.6250013619217114  0.0000137985598769
  0.3742926802055635  0.6257394128854017  0.4998162635200956
  0.8749711627354841  0.1250563560065814  0.0000485613435046
  0.8752395229282328  0.1248042286862940  0.4999216408270968
  0.8750504092392077  0.6250132323321793  0.9999939673262546
  0.8749232467416377  0.6250064597767349  0.5000053193189302
  0.3750220797063122  0.0000311167083282  0.1249514685911279
  0.3750469431153505  0.0000536029489098  0.6249535788844511
  0.3750135747609349  0.5000403045309625  0.1250647800839317
  0.3742713822217141  0.4998483953962349  0.6257291062287322
  0.8749662799692999  0.0000767349835655  0.1250345128809016
  0.8750496342299812  0.0000305921713135  0.6249786252149576
  0.8752401811442709  0.4999445439587333  0.1247600546694017
  0.8749338083381062  0.5000394395450130  0.6249862367033927
  0.2500117782708813  0.1250488817287945  0.1250126997133592
  0.2499342947718404  0.1248938120870307  0.6250206039855897
  0.2499300842040739  0.6250604844991088  0.1248588612839896
  0.2501028186633434  0.6248837265515803  0.6248509069780823
  0.7499669714046817  0.1251310922557707  0.1250982168980883
  0.7500190053228408  0.1250614402800565  0.6249080410496433
  0.7500080861878757  0.6249348985859697  0.1250181597935622
  0.7502296751949302  0.6251144651779654  0.6250824365805414
  0.3124849628159438  0.0625007504874233  0.3124478997086513
  0.3124263244459442  0.0624006955782761  0.8125496265966419
  0.3113768169777416  0.5623973118561167  0.3113871904466734
  0.3124876405551333  0.5624339330150505  0.8124928313490543
  0.8123693173279278  0.0626155731053615  0.3125792445959092
  0.8124868426121097  0.0625269823124341  0.8125584966329669
  0.8123567113537362  0.5624067928779155  0.3123760836597000
  0.8129672408490620  0.5625089423066640  0.8129955439404455
  0.4375403456475055  0.1876076292759450  0.3123656233415133
  0.4374543664700852  0.1870003234979336  0.8129966856171009
  0.4375675019577443  0.6885923574432624  0.3113711213160073
  0.4375377232645121  0.6874804266088432  0.8124937078737702
  0.9373590334421920  0.1875996548033001  0.3125773853614220
  0.9374424685066387  0.1874762637923695  0.8125595118839897
  0.9374637358465776  0.6874794350076954  0.3124565896421743
  0.9375605028987621  0.6875409641994139  0.8125508091372353
  0.4375083826828288  0.0626169593164505  0.4374946588797286
  0.4374545059857695  0.0623335116449439  0.9376325760811213
  0.4335777787586821  0.5664231032693081  0.4323909958239369
  0.4374891846309481  0.5624720055902301  0.9375344690105294
  0.9376188287110807  0.0623500099810883  0.4375371726813313
  0.9374358012291992  0.0625287297639332  0.9375975981828049
  0.9373495772058078  0.5624527216583530  0.4375100904962039
  0.9376315408717986  0.5625117110840208  0.9376319615484192
  0.3126732805774282  0.1876238220085540  0.4373448017322943
  0.3124365607766961  0.1874355050573939  0.9375655811212908
  0.3119556829943733  0.6880127177963828  0.4374900793068619
  0.3124960714948628  0.6874708633751752  0.9375201686429619
  0.8127166577531142  0.1872501460908609  0.4376612602575847
  0.8124535692096018  0.1875167786319878  0.9375431953147526
  0.8123422331437951  0.6872759173150556  0.4373524763127818
  0.8125227899542153  0.6875271041087743  0.9375685099554403
  0.2499945017406375  0.0000521511925342  0.2499318373889707
  0.2500089079963743  0.9999360529052481  0.7499913770842284
  0.2493137434676029  0.4999315266385125  0.2491611231471254
  0.2496363699348478  0.4998672183731969  0.7503638384416504
  0.7500174783682709  0.0000956005444834  0.2499827107509631
  0.7500695197838425  0.0000513972484342  0.7500067742786314
  0.7502137404261688  0.4996701001060941  0.2497863479720621
  0.7508390746400622  0.4999311591292965  0.7506869976892077
  0.3750940315164968  0.1250629026227017  0.2499826397609581
  0.3749799018884801  0.1248935995610481  0.7500667265287291
  0.3749178724967308  0.6251154414832030  0.2497708410940831
  0.3751495411639709  0.6248837675301289  0.7498973741630266
  0.8749018514233313  0.1251312559057425  0.2500333789869487
  0.8749889065046048  0.1250479156200939  0.7499897424816666
  0.8749814669524838  0.6249344983587406  0.2499927319267172
  0.8751416549625333  0.6250599722661363  0.7500703241656552
  0.3750341545294660  0.0000853823148077  0.3749783817839543
  0.3750056257555201  0.9999644921858177  0.8749850339138234
  0.3736850522447668  0.4999111161502512  0.3730537478980693
  0.3750260657436613  0.4999688806919806  0.8749906795806623
  0.8749735694998009  0.0001023870599752  0.3749670225672190
  0.8750148608416524  0.0000497856075086  0.8750392125095487
  0.8747611861749718  0.4999692794929373  0.3750614399765198
  0.8752800942169472  0.4999666968966423  0.8752877795202991
  0.2501250502416212  0.1250742852750761  0.3749564909399083
  0.2499926837908433  0.1249729752183626  0.8749941512297426
  0.2499037702191771  0.6250437021822819  0.3748006292336257
  0.2500658914358098  0.6249764424141304  0.8749656357993416
  0.7499352212969441  0.1251960217285344  0.3749933984148797
  0.7500082686399665  0.1250593291084883  0.8749806757542800
  0.7496685878134741  0.6244604999176531  0.3751111261808404
  0.7500942627543026  0.6250180764820641  0.8750797373007373
  0.3124712280174649  0.3124130467207991  0.0625213006118557
  0.3113662718112380  0.3113472580732832  0.5624447938463604
  0.3124265246082629  0.8125133054732103  0.0624413153359242
  0.3124957393768284  0.8124643827016556  0.5624551511544382
  0.8123740860726514  0.3125431447055718  0.0626382345148286
  0.8123741317178030  0.3123242333923599  0.5624744438186440
  0.8124784572675097  0.8125238769393377  0.0625695408916940
  0.8129671712149928  0.8129593876709009  0.5625405467649855
  0.4374896274422682  0.4374628442296711  0.0626389096108610
  0.4335542669001455  0.4323807469199608  0.5664450382419872
  0.4374566861183027  0.9375992931723331  0.0623723872336512
  0.4375044054982453  0.9375060422125259  0.5624953423341594
  0.9376265672133357  0.4375019823001196  0.0623728902591552
  0.9373595861638080  0.4374622487714888  0.5625098929476238
  0.9374311236494535  0.9375650325746534  0.0625687639212131
  0.9376271050179241  0.9375992401355973  0.5625423202475588
  0.4375261101561918  0.3123248955696383  0.1876253387158613
  0.4375557360352857  0.3113483536435595  0.6886325732194791
  0.4374585860026130  0.8129594609066757  0.1870325780089388
  0.4375440774398527  0.8124643515651897  0.6875036835048220
  0.9373613679793849  0.3125430790162653  0.1876247815514418
  0.9374782588071184  0.3124127318751988  0.6875289437557797
  0.9374299823883234  0.8125237786586084  0.1875213042393398
  0.9375579472256703  0.8125129710538559  0.6875721934754750
  0.3126585690319246  0.4373082896562650  0.1876331997366023
  0.3119446945697248  0.4374676273621247  0.6880551143236247
  0.3124434072256932  0.9375324543654813  0.1874752902046524
  0.3125036026580190  0.9374917674620917  0.6874954760981851
  0.8127213599484477  0.4376150952843574  0.1872774171980822
  0.8123659164263159  0.4373075846171659  0.6873415244127159
  0.8124426890671614  0.9375135017857161  0.1875569611717509
  0.8125245590987760  0.9375321565429715  0.6875561493614981
  0.2499833413781403  0.2499652666181404  0.0000116256910871
  0.2493101087309597  0.2492000093740145  0.4998959940027490
  0.2500054701892438  0.7500326514406623  0.9999058282442661
  0.2496506763014494  0.7503823869196182  0.4998308821037725
  0.7500237491385562  0.2500078899834648  0.0000533501208011
  0.7502229606341970  0.2498407030241694  0.4996537757399580
  0.7500645407406168  0.7500420065921034  0.0000185141283069
  0.7508365241789647  0.7507249389023229  0.4998926913678474
  0.3750171560907987  0.3750192294160328  0.0000400923314388
  0.3736625141047938  0.3730797270742769  0.4998926574990321
  0.3750054004482237  0.8750205808249163  0.9999373375080793
  0.3750411145739179  0.8750222279580200  0.4999265632761478
  0.8749823068638705  0.3749917205232691  0.0000631187339195
  0.8747707178974835  0.3750929310603794  0.4999555060457439
  0.8750120217787227  0.8750686928281013  0.0000239947191361
  0.8752723255622001  0.8753234289843874  0.4999313249337263
  0.3750828860920734  0.2500256386904027  0.1250040377451924
  0.3749180566179859  0.2498069288246256  0.6250832168620164
  0.3749768755824974  0.7501022279385055  0.1248648378803239
  0.3751533920601986  0.7499271507813816  0.6248470986396057
  0.8749058769528446  0.2500584158815258  0.1250943517215291
  0.8749970270626051  0.2500248257997271  0.6249187778629732
  0.8749788544337775  0.7500149789921196  0.1250218002500034
  0.8751354553780146  0.7501015831146916  0.6250231120870353
  0.2501083155814428  0.3749994222631017  0.1250203681698636
  0.2498987587977410  0.3748343466891129  0.6250229662264104
  0.2499961457935100  0.8750300535114235  0.1249447199691289
  0.2500745199092336  0.8749989757728756  0.6249322259317935
  0.7499367017085916  0.3750203107461090  0.1251481615578527
  0.7496990045194849  0.3751484152474092  0.6244549626014475
  0.7499993732282491  0.8750101533427070  0.1250364641497583
  0.7500924598527234  0.8751130094964097  0.6249819837466433
  0.3127451802121755  0.3125228735616759  0.3125467612731896
  0.3124108171536690  0.3124276288512817  0.8126441986263870
  0.3124188597017437  0.8126069831418192  0.3124584671153485
  0.3125192205562755  0.8124443685247940  0.8124717480344970
  0.8121168545289663  0.3128025143472257  0.3128426655569641
  0.8124431752522696  0.3124845845685584  0.8124883382020798
  0.8124245146936673  0.8124443936710151  0.3125269976021698
  0.8125082098390308  0.8125393611329841  0.8125714961349999
  0.4383749711450378  0.4368044065613503  0.3133142380294842
  0.4374812730299737  0.4374240337697799  0.8125385151580176
  0.4374905174188157  0.9375519861210222  0.3125041338745689
  0.4374964131979695  0.9374860481466385  0.8125126361320341
  0.9373102813200305  0.4375296750968829  0.3125927639700521
  0.9374468345719151  0.4374368896835037  0.8125263012511041
  0.9373927310203456  0.9375354899419861  0.3125235419922845
  0.9374732163166328  0.9375138422324554  0.8125697160233116
  0.4383864585390782  0.3133066854323800  0.4368607136192466
  0.4374776522329284  0.3124732506972450  0.9375820535684198
  0.4374947509195906  0.8125031580209665  0.4374475468891887
  0.4374936420406712  0.8124846079166375  0.9375179860014882
  0.9373123575021935  0.3125507162485945  0.4375794299282347
  0.9374058218835231  0.3124834182912934  0.9375645157016663
  0.9374299570693623  0.8124824978229412  0.4374751428584318
  0.9374717926362450  0.8125370419139557  0.9375530990546750
  0.3126147739284661  0.4374817718475796  0.4375228407455936
  0.3124572922906950  0.4374669832103848  0.9375582903489814
  0.3124713586745216  0.9375308228703005  0.4374943944543617
  0.3124368977247443  0.9374673282993271  0.9375063465290339
  0.8120229783595434  0.4375105939227879  0.4375797135322159
  0.8124705756309893  0.4374811139307937  0.9376238387397180
  0.8124646992532476  0.9375942820702861  0.4375163457640951
  0.8124580499817426  0.9375718214168955  0.9376078169649205
  0.2501373309989674  0.2501122364935213  0.2500644792444646
  0.2499687117432146  0.2499629490707065  0.7500319835280038
  0.2499711481516371  0.7500629383124817  0.2499306287181042
  0.2501172172681194  0.7499192301463395  0.7498828892485605
  0.7498123286224754  0.2502260519308805  0.2501873761523825
  0.7499369839378076  0.2501110482743485  0.7498652610169003
  0.7499172672220595  0.7498849617970365  0.2500829842511294