GaN                                     
    1.000000000000000     
    15.8909244537000003    0.0000000000000000    0.0000000000000000
     0.0000000000000000   16.5143318175999987    0.0000000000000000
     0.0000000000000000    0.0000000000000000   15.4982528686999999
   Ga   N    H
   179   180    1
Direct
  0.1000000009999980  0.0556198511936364  0.3330033022949588
  0.1000000009999980  0.0555531851602089  0.6663225425049404
  0.1000000009999980  0.0555384857431622  0.9996848508011417
  0.1000000009999980  0.3888527750769806  0.3329324204771471
  0.1000000009999980  0.3888209472028796  0.6664097433918795
  0.1000000009999980  0.3888614395351705  0.9997696206355076
  0.1000000009999980  0.7221983415572505  0.3329854466635594
  0.1000000009999980  0.7222304623400500  0.6663669538636962
  0.1000000009999980  0.7221938338860218  0.9996944411594558
  0.3001488108672828  0.0556396208365424  0.3329783483038178
  0.2999371052787109  0.0554710242830917  0.6663682438859756
  0.3000186112178352  0.0555379234641213  0.9997314894850340
  0.3005058723314463  0.3890344576740735  0.3331485331731120
  0.2996968896229272  0.3888191604528228  0.6663577645319796
  0.3000398547845096  0.3888589137150489  0.9996412351342183
  0.3000211459985667  0.7221666970533297  0.3329877379746852
  0.2999104036308640  0.7222609090387309  0.6664461807289731
  0.3000153048220975  0.7222093091357608  0.9997415027439173
  0.5000327531782769  0.0555004621316722  0.3329870491019456
  0.4999949229529395  0.0554198642135502  0.6664366648735436
  0.4999810079812998  0.0555253897596370  0.9997383836965688
  0.5010130606897687  0.3894328499523951  0.3335662320395468
  0.4992591642746323  0.3884538059876677  0.6643499711214560
  0.5001212293924243  0.3889268700789226  0.9991127557013629
  0.5001246811390543  0.7216438552332630  0.3331753568691051
  0.4998710898739282  0.7224796978641062  0.6663651239229869
  0.5000272096236954  0.7221570550979625  0.9996317651858586
  0.6999672348217250  0.0555004621316722  0.3329870491019456
  0.7000050650470622  0.0554198642135502  0.6664366648735436
  0.7000189800187022  0.0555253897596370  0.9997383836965688
  0.6989869273102332  0.3894328499523951  0.3335662320395468
  0.7007408237253693  0.3884538059876677  0.6643499711214560
  0.6998787586075778  0.3889268700789226  0.9991127557013629
  0.6998753068609476  0.7216438552332630  0.3331753568691051
  0.7001288981260739  0.7224796978641062  0.6663651239229869
  0.6999727783763064  0.7221570550979625  0.9996317651858586
  0.8998511771327121  0.0556396208365424  0.3329783483038178
  0.9000628827212840  0.0554710242830917  0.6663682438859756
  0.8999813767821594  0.0555379234641213  0.9997314894850340
  0.8994941156685485  0.3890344576740735  0.3331485331731120
  0.9003030983770677  0.3888191604528228  0.6663577645319796
  0.8999601332154851  0.3888589137150489  0.9996412351342183
  0.8999788420014280  0.7221666970533297  0.3329877379746852
  0.9000895843691308  0.7222609090387309  0.6664461807289731
  0.8999846831778971  0.7222093091357608  0.9997415027439173
 -0.0001657318174628  0.2223137242042758  0.3330240011288345
 -0.0000037489269541  0.2221915470476092  0.6662972421337601
 -0.0000196844020819  0.2222114372468794  0.9997345999804090
 -0.0000167029303483  0.5555161763883091  0.3329800501061808
  0.0000760978106623  0.5555800485480138  0.6664644823181509
  0.0000047066720353  0.5555050668569109  0.9997478436425046
 -0.0000435971851684  0.8889109763847955  0.3329882778076028
  0.0000198797004923  0.8888727206604783  0.6663517478758475
 -0.0000122135522673  0.8888690225331148  0.9996961122485165
  0.2001657348174624  0.2223137242042758  0.3330240011288345
  0.2000037519269536  0.2221915470476092  0.6662972421337601
  0.2000196874020815  0.2222114372468794  0.9997345999804090
  0.2000167059303478  0.5555161763883091  0.3329800501061808
  0.1999239051893373  0.5555800485480138  0.6664644823181509
  0.1999952963279642  0.5555050668569109  0.9997478436425046
  0.2000436001851679  0.8889109763847955  0.3329882778076028
  0.1999801232995073  0.8888727206604783  0.6663517478758475
  0.2000122165522668  0.8888690225331148  0.9996961122485165
  0.4004516611232504  0.2225698537955088  0.3331903999676372
  0.3998157109170769  0.2219482380766447  0.6663546822169076
  0.4000232228404053  0.2222364930097476  0.9996303543886309
  0.4000133336099683  0.5555073816181353  0.3329472072263403
  0.3997878780396407  0.5556414052656838  0.6667955955754241
  0.4000395072913053  0.5555066991389518  0.9994014017149362
  0.4001088309308056  0.8887107631343998  0.3329682465434796
  0.3999575045399447  0.8889282040077746  0.6663854275173459
  0.4000088021610059  0.8888411515005714  0.9997326236744856
  0.6000000240000034  0.2222207047623360  0.3329482788720420
  0.6000000240000034  0.2219770574702107  0.6667765385381768
  0.6000000240000034  0.2222406286035960  0.9994016511407392
  0.6000000240000034  0.5543721201230539  0.3334553122039244
  0.6000000240000034  0.5563536582432262  0.6643517757724956
  0.6000000240000034  0.5553932124893824  0.9991172527950426
  0.6000000240000034  0.8886550059394841  0.3330110390992293
  0.6000000240000034  0.8888251202629586  0.6663264679564542
  0.6000000240000034  0.8888352920112627  0.9997378814328693
  0.7995483568767467  0.2225698537955088  0.3331903999676372
  0.8001843070829203  0.2219482380766447  0.6663546822169076
  0.7999767951595917  0.2222364930097476  0.9996303543886309
  0.7999866843900288  0.5555073816181353  0.3329472072263403
  0.8002121399603566  0.5556414052656838  0.6667955955754241
  0.7999605107086920  0.5555066991389518  0.9994014017149362
  0.7998911870691917  0.8887107631343998  0.3329682465434796
  0.8000425134600524  0.8889282040077746  0.6663854275173459
  0.7999912158389910  0.8888411515005714  0.9997326236744856
  0.1000000009999980  0.2778063263147695  0.1664065504162528
  0.1000000009999980  0.2777904276988326  0.4996719304442712
  0.1000000009999980  0.2777903400206514  0.8330208299598396
  0.1000000009999980  0.6111146450470556  0.1663574567825722
  0.1000000009999980  0.6113077501349037  0.4997096344685792
  0.1000000009999980  0.6111461779614290  0.8330687752343356
  0.1000000009999980  0.9444754160085149  0.1663487074164295
  0.1000000009999980  0.9446337051411152  0.4996700603303652
  0.1000000009999980  0.9444820503505492  0.8330164868582554
  0.3001054940998576  0.2778661396324477  0.1664531770325509
  0.3004308935728316  0.2780136751383097  0.4996246502798137
  0.2999656079351156  0.2777852019421539  0.8330108100220152
  0.3000532312581410  0.6111076152494773  0.1662864297905755
  0.2996045908413957  0.6113677834277904  0.4998125608681033
  0.2998747999277172  0.6112148484236093  0.8331601217985993
  0.3000505310393606  0.9444754037395389  0.1663808060709364
  0.3000336569434719  0.9444502642325383  0.4996750645256542
  0.2999925294067622  0.9444785740209185  0.8330482089487026
  0.5000960084105479  0.2779402428860502  0.1661493581150339
  0.5013785370688069  0.2777530740466312  0.5004704819290819
  0.4999111159738627  0.2777254731276755  0.8327131767298021
  0.5000689180252499  0.6109928066500424  0.1661372903883151
  0.4991874165628945  0.6100083409864333  0.5005088606901890
  0.4999764420643375  0.6112485863543196  0.8327170160317776
  0.5000205576394312  0.9444599557615115  0.1663811191742783
  0.5000506613926670  0.9441667787665005  0.4996909210276898
  0.4999992121772847  0.9444459126281405  0.8330430553175082
  0.6999039795894538  0.2779402428860502  0.1661493581150339
  0.6986214509311950  0.2777530740466312  0.5004704819290819
  0.7000888720261391  0.2777254731276755  0.8327131767298021
  0.6999310699747520  0.6109928066500424  0.1661372903883151
  0.7008125714371074  0.6100083409864333  0.5005088606901890
  0.7000235459356644  0.6112485863543196  0.8327170160317776
  0.6999794303605706  0.9444599557615115  0.1663811191742783
  0.6999493266073349  0.9441667787665005  0.4996909210276898
  0.7000007758227174  0.9444459126281405  0.8330430553175082
  0.8998944939001372  0.2778661396324477  0.1664531770325509
  0.8995690944271633  0.2780136751383097  0.4996246502798137
  0.9000343800648792  0.2777852019421539  0.8330108100220152
  0.8999467567418539  0.6111076152494773  0.1662864297905755
  0.9003953971585991  0.6113677834277904  0.4998125608681033
  0.9001251880722775  0.6112148484236093  0.8331601217985993
  0.8999494569606340  0.9444754037395389  0.1663808060709364
  0.8999663310565228  0.9444502642325383  0.4996750645256542
  0.9000074585932326  0.9444785740209185  0.8330482089487026
 -0.0000309276818087  0.1111656014408607  0.1663864230099988
 -0.0000973849410983  0.1112482369518444  0.4996594764473292
 -0.0000000552733495  0.1111505587433908  0.8330157559452748
 -0.0000825398177258  0.4444524836472688  0.1664253685918805
  0.0001058477916664  0.4447415897311670  0.4998198107862418
  0.0000486406154816  0.4444697676159586  0.8330717957221148
 -0.0000253831645506  0.7778027418641710  0.1663566135733399
  0.0000849119600381  0.7779606741831915  0.4996845891307085
  0.0000101734156564  0.7778302359365559  0.8330424202045874
  0.2000309306818082  0.1111656014408607  0.1663864230099988
  0.2000973879410979  0.1112482369518444  0.4996594764473292
  0.2000000582733491  0.1111505587433908  0.8330157559452748
  0.2000825428177253  0.4444524836472688  0.1664253685918805
  0.1998941552083332  0.4447415897311670  0.4998198107862418
  0.1999513623845179  0.4444697676159586  0.8330717957221148
  0.2000253861645502  0.7778027418641710  0.1663566135733399
  0.1999150910399614  0.7779606741831915  0.4996845891307085
  0.1999898295843432  0.7778302359365559  0.8330424202045874
  0.4000497722451034  0.1112506257774761  0.1664176847814031
  0.4002120502905859  0.1109027946920266  0.4998001623187171
  0.3999712658511775  0.1110889392462790  0.8330490387605994
  0.4001610691044340  0.4444873263308964  0.1661466579416835
  0.4006532452701859  0.4456497031993638  0.5004969291794160
  0.3998885519221748  0.4444335922497455  0.8327168576886811
  0.4000858833158780  0.7777143891430992  0.1664117286672281
  0.3997408399129955  0.7777186346283161  0.4998010372635929
  0.3999651256775351  0.7778476907988613  0.8330548258899697
  0.6000000240000034  0.1111996844638423  0.1662908240595976
  0.6000000240000034  0.1106430214433290  0.4998029323428648
  0.6000000240000034  0.1109941661964557  0.8331521873841493
  0.6000000240000034  0.4444635644758939  0.1655817432579466
  0.6000000240000034  0.4444642528882176  0.8315065238968099
  0.6000000240000034  0.7776935608698626  0.1664495069621818
  0.6000000240000034  0.7772350872959046  0.4996335322499135
  0.6000000240000034  0.7778393241884941  0.8330166369420033
  0.7999502457548937  0.1112506257774761  0.1664176847814031
  0.7997879677094114  0.1109027946920266  0.4998001623187171
  0.8000287521488197  0.1110889392462790  0.8330490387605994
  0.7998389488955631  0.4444873263308964  0.1661466579416835
  0.7993467727298114  0.4456497031993638  0.5004969291794160
  0.8001114660778222  0.4444335922497455  0.8327168576886811
  0.7999141346841192  0.7777143891430992  0.1664117286672281
  0.8002591780870018  0.7777186346283161  0.4998010372635929
  0.8000348923224616  0.7778476907988613  0.8330548258899697
  0.1000000009999980  0.0556159775307510  0.1253662706331014
  0.1000000009999980  0.0557706789230426  0.4586898728312151
  0.1000000009999980  0.0555859537380456  0.7919906796079808
  0.1000000009999980  0.3889403237810192  0.1254500505998420
  0.1000000009999980  0.3888832181432706  0.4586222603508319
  0.1000000009999980  0.3889023222709823  0.7920264356023934
  0.1000000009999980  0.7222347212883921  0.1253631721600888
  0.1000000009999980  0.7223621494305414  0.4586511058866717
  0.1000000009999980  0.7222455656189286  0.7920212459686174
  0.3000598715163815  0.0556063816832762  0.1254061388055764
  0.3000893531950603  0.0556096262361600  0.4586527389792694
  0.2999762660752595  0.0555501096693861  0.7920091959012517
  0.3000662509830665  0.3889329004149590  0.1253040818896702
  0.2999253696526639  0.3892153739360109  0.4588441567117643
  0.2998235553216456  0.3888622394340135  0.7919892276387899
  0.3000375702235520  0.7222454338081006  0.1253633512823450
  0.2997843631414122  0.7223663871850327  0.4586611096663391
  0.2999778476453115  0.7222715832035607  0.7920749275656165
  0.4999883914524776  0.0555764108388169  0.1253748515491764
  0.5000263933726736  0.0552132247416451  0.4586702137285445
  0.4999852441547000  0.0555407359136247  0.7920716641253350
  0.5000246295750994  0.3889293041951999  0.1247793408138455
  0.4930926647384017  0.3851079790101302  0.4563536023660319
  0.4996304485185946  0.3887045803873904  0.7913803501754302
  0.5000420192119810  0.7221610590787866  0.1252853773423913
  0.4997108454424026  0.7220687032168878  0.4588584279499925
  0.4999583841191839  0.7224148722796623  0.7919955994042601
  0.7000115965475243  0.0555764108388169  0.1253748515491764
  0.6999735946273283  0.0552132247416451  0.4586702137285445
  0.7000147438453020  0.0555407359136247  0.7920716641253350
  0.6999753584249023  0.3889293041951999  0.1247793408138455
  0.7069073232616002  0.3851079790101302  0.4563536023660319
  0.7003695394814071  0.3887045803873904  0.7913803501754302
  0.6999579687880210  0.7221610590787866  0.1252853773423913
  0.7002891425575994  0.7220687032168878  0.4588584279499925
  0.7000416038808177  0.7224148722796623  0.7919955994042601
  0.8999401164836132  0.0556063816832762  0.1254061388055764
  0.8999106348049346  0.0556096262361600  0.4586527389792694
  0.9000237219247356  0.0555501096693861  0.7920091959012517
  0.8999337370169284  0.3889329004149590  0.1253040818896702
  0.9000746183473305  0.3892153739360109  0.4588441567117643
  0.9001764326783491  0.3888622394340135  0.7919892276387899
  0.8999624177764425  0.7222454338081006  0.1253633512823450
  0.9002156248585825  0.7223663871850327  0.4586611096663391
  0.9000221403546830  0.7222715832035607  0.7920749275656165
 -0.0000600729804442  0.2223038024364596  0.1254166854797086
 -0.0001847285803413  0.2224094620200987  0.4587152559724368
  0.0000190479572580  0.2222406518719520  0.7919657239717478
 -0.0000066425907200  0.5555476017720684  0.1253768649036148
  0.0001824235311477  0.5556832784360820  0.4586523481147947
  0.0000275775155956  0.5555771447061829  0.7920832606897892
 -0.0000322196276059  0.8889253621687809  0.1253632952376036
  0.0000179016713481  0.8890599058134084  0.4586595033927099
 -0.0000019739741597  0.8889225097325023  0.7920024537742474
  0.2000600759804438  0.2223038024364596  0.1254166854797086
  0.2001847315803408  0.2224094620200987  0.4587152559724368
  0.1999809550427416  0.2222406518719520  0.7919657239717478
  0.2000066455907195  0.5555476017720684  0.1253768649036148
  0.1998175794688518  0.5556832784360820  0.4586523481147947
  0.1999724254844040  0.5555771447061829  0.7920832606897892
  0.2000322226276054  0.8889253621687809  0.1253632952376036
  0.1999821013286514  0.8890599058134084  0.4586595033927099
  0.2000019769741593  0.8889225097325023  0.7920024537742474
  0.4000563134661086  0.2223202951690441  0.1252871577041221
  0.4002841775386069  0.2220351268464928  0.4588724025938492
  0.3998653323837779  0.2221258124157283  0.7919927454733940
  0.4000244987485407  0.5555657023890982  0.1250477856700586
  0.3992720863188670  0.5559551549209345  0.4586269559687834
  0.3998540714798107  0.5556601863904846  0.7922610661772385
  0.4000307567920576  0.8888516031866267  0.1254033501216805
  0.4000090257558462  0.8887928744785886  0.4586368761792232
  0.3999779448547875  0.8889369782400293  0.7920179471439601
  0.6000000240000034  0.2222737157121674  0.1250510088117284
  0.6000000240000034  0.2214246776164746  0.4586293938066424
  0.6000000240000034  0.2220816366633917  0.7922518329469095
  0.6000000240000034  0.5555427156229944  0.1247852868300164
  0.6000000240000034  0.5634000200853611  0.4562492083134596
  0.6000000240000034  0.5559851752368767  0.7913743358475972
  0.6000000240000034  0.8888313445297582  0.1254071801796439
  0.6000000240000034  0.8885089733258877  0.4586915346802456
  0.6000000240000034  0.8889264126406594  0.7919851600088005
  0.7999437045338885  0.2223202951690441  0.1252871577041221
  0.7997158404613903  0.2220351268464928  0.4588724025938492
  0.8001346856162190  0.2221258124157283  0.7919927454733940
  0.7999755192514565  0.5555657023890982  0.1250477856700586
  0.8007279316811301  0.5559551549209345  0.4586269559687834
  0.8001459465201866  0.5556601863904846  0.7922610661772385
  0.7999692612079397  0.8888516031866267  0.1254033501216805
  0.7999909922441510  0.8887928744785886  0.4586368761792232
  0.8000220731452097  0.8889369782400293  0.7920179471439601
  0.1000000009999980  0.2777241866294957  0.2920699938203010
  0.1000000009999980  0.2777555292317543  0.6253058920964658
  0.1000000009999980  0.2777616153119971  0.9587075119602110
  0.1000000009999980  0.6110688204318990  0.2920059526270666
  0.1000000009999980  0.6111467154269780  0.6253543551656803
  0.1000000009999980  0.6110707290018910  0.9587160760334548
  0.1000000009999980  0.9444711948056110  0.2920277095887769
  0.1000000009999980  0.9444490862432393  0.6253246880085845
  0.1000000009999980  0.9444174524443265  0.9586740979850056
  0.3002055269822266  0.2778764151362138  0.2921438765945633
  0.2999955722393164  0.2777579129502210  0.6253069550155895
  0.3000112832790343  0.2777630769757886  0.9586708520153696
  0.2999613051651489  0.6110886814959888  0.2919270018495936
  0.2998488242012383  0.6111803097781630  0.6254645320527598
  0.2999583783833119  0.6111108535993723  0.9587434875240126
  0.3001296432832244  0.9444436341513628  0.2920545196979369
  0.2999648607978960  0.9444127133288021  0.6252995572679604
  0.3000231444272112  0.9444263842346556  0.9587000449836581
  0.5003133412781532  0.2779857911236362  0.2916725398567066
  0.4999579824961015  0.2770453535416191  0.6256242373040588
  0.4999775001204736  0.2777571860823479  0.9584074350566134
  0.5000345423148571  0.6107227967649397  0.2916710679184770
  0.4993724721196278  0.6114799654060372  0.6256368220969883
  0.5000133859077083  0.6111075072269210  0.9584079639521041
  0.5000517951679319  0.9443622881688827  0.2920301862613752
  0.4999943896130255  0.9443487128368127  0.6253321071046690
  0.5000077133269645  0.9444118675821729  0.9587095551216883
  0.6996866467218487  0.2779857911236362  0.2916725398567066
  0.7000420055039003  0.2770453535416191  0.6256242373040588
  0.7000224878795285  0.2777571860823479  0.9584074350566134
  0.6999654456851447  0.6107227967649397  0.2916710679184770
  0.7006275158803740  0.6114799654060372  0.6256368220969883
  0.6999866020922936  0.6111075072269210  0.9584079639521041
  0.6999481928320700  0.9443622881688827  0.2920301862613752
  0.7000055983869765  0.9443487128368127  0.6253321071046690
  0.6999922746730375  0.9444118675821729  0.9587095551216883
  0.8997944610177681  0.2778764151362138  0.2921438765945633
  0.9000044157606781  0.2777579129502210  0.6253069550155895
  0.8999887047209603  0.2777630769757886  0.9586708520153696
  0.9000386828348458  0.6110886814959888  0.2919270018495936
  0.9001511637987565  0.6111803097781630  0.6254645320527598
  0.9000416096166829  0.6111108535993723  0.9587434875240126
  0.8998703447167702  0.9444436341513628  0.2920545196979369
  0.9000351272020989  0.9444127133288021  0.6252995572679604
  0.8999768435727835  0.9444263842346556  0.9587000449836581
 -0.0000625382261899  0.1111512188629556  0.2920601367057351
 -0.0000051069115191  0.1110901672459014  0.6253054302578100
 -0.0000208632247959  0.1111043382071354  0.9586905691017548
 -0.0001370469260813  0.4443589977117250  0.2921042785522402
  0.0001828480770138  0.4445105904825246  0.6253773181669835
 -0.0000033891237733  0.4444119283824343  0.9587174290319229
 -0.0000156651458932  0.7777832873963422  0.2920133703575963
  0.0000430442791165  0.7778045697859655  0.6253362984874227
 -0.0000154583590186  0.7777510862418821  0.9586950106519033
  0.2000625412261895  0.1111512188629556  0.2920601367057351
  0.2000051099115187  0.1110901672459014  0.6253054302578100
  0.2000208662247954  0.1111043382071354  0.9586905691017548
  0.2001370499260808  0.4443589977117250  0.2921042785522402
  0.1998171549229858  0.4445105904825246  0.6253773181669835
  0.2000033921237728  0.4444119283824343  0.9587174290319229
  0.2000156681458927  0.7777832873963422  0.2920133703575963
  0.1999569587208830  0.7778045697859655  0.6253362984874227
  0.2000154613590181  0.7777510862418821  0.9586950106519033
  0.4001282530503129  0.1113009644365019  0.2920862724194323
  0.3999687962030661  0.1108628137900114  0.6253923380999726
  0.4000104482677203  0.1111111195732634  0.9586999995076783
  0.4003077335688516  0.4445619272529234  0.2916768298259608
  0.3993264474565729  0.4447523053254939  0.6256287652263351
  0.3999857350461447  0.4444010908590443  0.9584121320102570
  0.4001646263797358  0.7775702476349502  0.2920767777579807
  0.3998235791255566  0.7778890557240851  0.6253915193171328
  0.4000150791605840  0.7777344793425016  0.9586992534257832
  0.6000000240000034  0.1110527000262010  0.2919386458727505
  0.6000000240000034  0.1109164388479663  0.6254551951613808
  0.6000000240000034  0.1110462341531091  0.9587412554512821
  0.6000000240000034  0.4444097618148612  0.2911806882696457
  0.6000000240000034  0.4444237561153409  0.6340479673119863
  0.6000000240000034  0.4444226100704786  0.9576504163470865
  0.6000000240000034  0.7775210834839632  0.2921310314556329
  0.6000000240000034  0.7777357128443216  0.6253173727965450
  0.6000000240000034  0.7777438654603630  0.9586706123573613
  0.7998717649496843  0.1113009644365019  0.2920862724194323
  0.8000312217969311  0.1108628137900114  0.6253923380999726
  0.7999895697322771  0.1111111195732634  0.9586999995076783
  0.7996922844311456  0.4445619272529234  0.2916768298259608
  0.8006735705434244  0.4447523053254939  0.6256287652263351
  0.8000142829538526  0.4444010908590443  0.9584121320102570
  0.7998353916202616  0.7775702476349502  0.2920767777579807
  0.8001764388744405  0.7778890557240851  0.6253915193171328
  0.7999849388394131  0.7777344793425016  0.9586992534257832
  0.30003   0.82445   0.51
 
  0.00000000E+00  0.00000000E+00  0.00000000E+00
  0.00000000E+00  0.00000000E+00  0.00000000E+00
  0.00000000E+00  0.00000000E+00  0.00000000E+00
  0.00000000E+00  0.00000000E+00  0.00000000E+00
  0.00000000E+00  0.00000000E+00  0.00000000E+00
  0.00000000E+00  0.00000000E+00  0.00000000E+00
  0.00000000E+00  0.00000000E+00  0.00000000E+00
  0.00000000E+00  0.00000000E+00  0.00000000E+00
  0.00000000E+00  0.00000000E+00  0.00000000E+00
  0.00000000E+00  0.00000000E+00  0.00000000E+00
  0.00000000E+00  0.00000000E+00  0.00000000E+00
  0.00000000E+00  0.00000000E+00  0.00000000E+00
  0.00000000E+00  0.00000000E+00  0.00000000E+00
  0.00000000E+00  0.00000000E+00  0.00000000E+00
  0.00000000E+00  0.00000000E+00  0.00000000E+00
  0.00000000E+00  0.00000000E+00  0.00000000E+00
  0.00000000E+00  0.00000000E+00  0.00000000E+00
  0.00000000E+00  0.00000000E+00  0.00000000E+00
  0.00000000E+00  0.00000000E+00  0.00000000E+00
  0.00000000E+00  0.00000000E+00  0.00000000E+00
  0.00000000E+00  0.00000000E+00  0.00000000E+00
  0.00000000E+00  0.00000000E+00  0.00000000E+00
  0.00000000E+00  0.00000000E+00  0.00000000E+00
  0.00000000E+00  0.00000000E+00  0.00000000E+00
  0.00000000E+00  0.00000000E+00  0.00000000E+00
  0.00000000E+00  0.00000000E+00  0.00000000E+00
  0.00000000E+00  0.00000000E+00  0.00000000E+00
  0.00000000E+00  0.00000000E+00  0.00000000E+00
  0.00000000E+00  0.00000000E+00  0.00000000E+00
  0.00000000E+00  0.00000000E+00  0.00000000E+00
  0.00000000E+00  0.00000000E+00  0.00000000E+00
  0.00000000E+00  0.00000000E+00  0.00000000E+00
  0.00000000E+00  0.00000000E+00  0.00000000E+00
  0.00000000E+00  0.00000000E+00  0.00000000E+00
  0.00000000E+00  0.00000000E+00  0.00000000E+00
  0.00000000E+00  0.00000000E+00  0.00000000E+00
  0.00000000E+00  0.00000000E+00  0.00000000E+00
  0.00000000E+00  0.00000000E+00  0.00000000E+00
  0.00000000E+00  0.00000000E+00  0.00000000E+00
  0.00000000E+00  0.00000000E+00  0.00000000E+00
  0.00000000E+00  0.00000000E+00  0.00000000E+00
  0.00000000E+00  0.00000000E+00  0.00000000E+00
  0.00000000E+00  0.00000000E+00  0.00000000E+00
  0.00000000E+00  0.00000000E+00  0.00000000E+00
  0.00000000E+00  0.00000000E+00  0.00000000E+00
  0.00000000E+00  0.00000000E+00  0.00000000E+00
  0.00000000E+00  0.00000000E+00  0.00000000E+00
  0.00000000E+00  0.00000000E+00  0.00000000E+00
  0.00000000E+00  0.00000000E+00  0.00000000E+00
  0.00000000E+00  0.00000000E+00  0.00000000E+00
  0.00000000E+00  0.00000000E+00  0.00000000E+00
  0.00000000E+00  0.00000000E+00  0.00000000E+00
  0.00000000E+00  0.00000000E+00  0.00000000E+00
  0.00000000E+00  0.00000000E+00  0.00000000E+00
  0.00000000E+00  0.00000000E+00  0.00000000E+00
  0.00000000E+00  0.00000000E+00  0.00000000E+00
  0.00000000E+00  0.00000000E+00  0.00000000E+00
  0.00000000E+00  0.00000000E+00  0.00000000E+00
  0.00000000E+00  0.00000000E+00  0.00000000E+00
  0.00000000E+00  0.00000000E+00  0.00000000E+00
  0.00000000E+00  0.00000000E+00  0.00000000E+00
  0.00000000E+00  0.00000000E+00  0.00000000E+00
  0.00000000E+00  0.00000000E+00  0.00000000E+00
  0.00000000E+00  0.00000000E+00  0.00000000E+00
  0.00000000E+00  0.00000000E+00  0.00000000E+00
  0.00000000E+00  0.00000000E+00  0.00000000E+00
  0.00000000E+00  0.00000000E+00  0.00000000E+00
  0.00000000E+00  0.00000000E+00  0.00000000E+00
  0.00000000E+00  0.00000000E+00  0.00000000E+00
  0.00000000E+00  0.00000000E+00  0.00000000E+00
  0.00000000E+00  0.00000000E+00  0.00000000E+00
  0.00000000E+00  0.00000000E+00  0.00000000E+00
  0.00000000E+00  0.00000000E+00  0.00000000E+00
  0.00000000E+00  0.00000000E+00  0.00000000E+00
  0.00000000E+00  0.00000000E+00  0.00000000E+00
  0.00000000E+00  0.00000000E+00  0.00000000E+00
  0.00000000E+00  0.00000000E+00  0.00000000E+00
  0.00000000E+00  0.00000000E+00  0.00000000E+00
  0.00000000E+00  0.00000000E+00  0.00000000E+00
  0.00000000E+00  0.00000000E+00  0.00000000E+00
  0.00000000E+00  0.00000000E+00  0.00000000E+00
  0.00000000E+00  0.00000000E+00  0.00000000E+00
  0.00000000E+00  0.00000000E+00  0.00000000E+00
  0.00000000E+00  0.00000000E+00  0.00000000E+00
  0.00000000E+00  0.00000000E+00  0.00000000E+00
  0.00000000E+00  0.00000000E+00  0.00000000E+00
  0.00000000E+00  0.00000000E+00  0.00000000E+00
  0.00000000E+00  0.00000000E+00  0.00000000E+00
  0.00000000E+00  0.00000000E+00  0.00000000E+00
  0.00000000E+00  0.00000000E+00  0.00000000E+00
  0.00000000E+00  0.00000000E+00  0.00000000E+00
  0.00000000E+00  0.00000000E+00  0.00000000E+00
  0.00000000E+00  0.00000000E+00  0.00000000E+00
  0.00000000E+00  0.00000000E+00  0.00000000E+00
  0.00000000E+00  0.00000000E+00  0.00000000E+00
  0.00000000E+00  0.00000000E+00  0.00000000E+00
  0.00000000E+00  0.00000000E+00  0.00000000E+00
  0.00000000E+00  0.00000000E+00  0.00000000E+00
  0.00000000E+00  0.00000000E+00  0.00000000E+00
  0.00000000E+00  0.00000000E+00  0.00000000E+00
  0.00000000E+00  0.00000000E+00  0.00000000E+00
  0.00000000E+00  0.00000000E+00  0.00000000E+00
  0.00000000E+00  0.00000000E+00  0.00000000E+00
  0.00000000E+00  0.00000000E+00  0.00000000E+00
  0.00000000E+00  0.00000000E+00  0.00000000E+00
  0.00000000E+00  0.00000000E+00  0.00000000E+00
  0.00000000E+00  0.00000000E+00  0.00000000E+00
  0.00000000E+00  0.00000000E+00  0.00000000E+00
  0.00000000E+00  0.00000000E+00  0.00000000E+00
  0.00000000E+00  0.00000000E+00  0.00000000E+00
  0.00000000E+00  0.00000000E+00  0.00000000E+00
  0.00000000E+00  0.00000000E+00  0.00000000E+00
  0.00000000E+00  0.00000000E+00  0.00000000E+00
  0.00000000E+00  0.00000000E+00  0.00000000E+00
  0.00000000E+00  0.00000000E+00  0.00000000E+00
  0.00000000E+00  0.00000000E+00  0.00000000E+00
  0.00000000E+00  0.00000000E+00  0.00000000E+00
  0.00000000E+00  0.00000000E+00  0.00000000E+00
  0.00000000E+00  0.00000000E+00  0.00000000E+00
  0.00000000E+00  0.00000000E+00  0.00000000E+00
  0.00000000E+00  0.00000000E+00  0.00000000E+00
  0.00000000E+00  0.00000000E+00  0.00000000E+00
  0.00000000E+00  0.00000000E+00  0.00000000E+00
  0.00000000E+00  0.00000000E+00  0.00000000E+00
  0.00000000E+00  0.00000000E+00  0.00000000E+00
  0.00000000E+00  0.00000000E+00  0.00000000E+00
  0.00000000E+00  0.00000000E+00  0.00000000E+00
  0.00000000E+00  0.00000000E+00  0.00000000E+00
  0.00000000E+00  0.00000000E+00  0.00000000E+00
  0.00000000E+00  0.00000000E+00  0.00000000E+00
  0.00000000E+00  0.00000000E+00  0.00000000E+00
  0.00000000E+00  0.00000000E+00  0.00000000E+00
  0.00000000E+00  0.00000000E+00  0.00000000E+00
  0.00000000E+00  0.00000000E+00  0.00000000E+00
  0.00000000E+00  0.00000000E+00  0.00000000E+00
  0.00000000E+00  0.00000000E+00  0.00000000E+00
  0.00000000E+00  0.00000000E+00  0.00000000E+00
  0.00000000E+00  0.00000000E+00  0.00000000E+00
  0.00000000E+00  0.00000000E+00  0.00000000E+00
  0.00000000E+00  0.00000000E+00  0.00000000E+00
  0.00000000E+00  0.00000000E+00  0.00000000E+00
  0.00000000E+00  0.00000000E+00  0.00000000E+00
  0.00000000E+00  0.00000000E+00  0.00000000E+00
  0.00000000E+00  0.00000000E+00  0.00000000E+00
  0.00000000E+00  0.00000000E+00  0.00000000E+00
  0.00000000E+00  0.00000000E+00  0.00000000E+00
  0.00000000E+00  0.00000000E+00  0.00000000E+00
  0.00000000E+00  0.00000000E+00  0.00000000E+00
  0.00000000E+00  0.00000000E+00  0.00000000E+00
  0.00000000E+00  0.00000000E+00  0.00000000E+00
  0.00000000E+00  0.00000000E+00  0.00000000E+00
  0.00000000E+00  0.00000000E+00  0.00000000E+00
  0.00000000E+00  0.00000000E+00  0.00000000E+00
  0.00000000E+00  0.00000000E+00  0.00000000E+00
  0.00000000E+00  0.00000000E+00  0.00000000E+00
  0.00000000E+00  0.00000000E+00  0.00000000E+00
  0.00000000E+00  0.00000000E+00  0.00000000E+00
  0.00000000E+00  0.00000000E+00  0.00000000E+00