4H-SiC Supercell                        
   1.00000000000000     
    15.2599999999999998    0.0000000000000000    0.0000000000000000
     0.0000000000000000   15.2599999999999998    0.0000000000000000
     0.0000000000000000    0.0000000000000000   40.5200000000016018
   Si   O 
 320 256
Direct
 -0.0006286394711623  0.0015806568412863  0.0003750993159013
 -0.0008825871573186  0.2489892495358920  0.0014767344716116
 -0.0008513634293378  0.4997883742065882  0.0007243461546593
 -0.0017627644743909  0.7513226979536979  0.0021070829299593
  0.2490459612606176  0.0008426423989118  0.0009837395799312
  0.2495632102009936  0.2484153585849465  0.0015821407167503
  0.2492213135738929  0.5011028794401478  0.0015598305800416
  0.2495512718242753  0.7508295034314056  0.0011397892405725
  0.4994434023150409  0.0009890908325231  0.0013649150932929
  0.5000042595592937  0.2478542326385232  0.0023556714388222
  0.5011376669024039  0.4999521826992254  0.0016990375730866
  0.4986002477639340  0.7514695244061383  0.0029244526509205
  0.7513506735329941  0.0023326304805205  0.0008630809963502
  0.7511015619546362  0.2491007263064406  0.0014011034216944
  0.7509426977339694  0.4988645602967183  0.0004037643073684
  0.7523682709168795  0.7483241731133882  0.0019591250380267
  0.3741704716267818  0.0004288796823268  0.0337934281870732
  0.3744656682841763  0.2491491012028012  0.0342799592447395
  0.3750552015696560  0.5006822523236258  0.0339750198279294
  0.1246122727339445  0.2489850931092635  0.0341518170317960
  0.3732521516817749  0.7490884581052405  0.0344866465656341
  0.6260033746230965  0.0003359504918708  0.0335873894712155
  0.6260990116572868  0.2484365017689790  0.0342691858854253
  0.6267565480172675  0.5006158176750523  0.0340040703406516
  0.1240643888163697  0.5007342511916800  0.0340714936431546
  0.6262896733216317  0.7510622130470340  0.0341527525345017
  0.1242783262413927  0.0005582905055654  0.0337152571459658
  0.8756524662629958  0.0013656038477183  0.0337496564562797
  0.8752591729627939  0.2491240481429910  0.0343120651304563
  0.8749167681338791  0.4997786996308909  0.0337648276562471
  0.1249008645185013  0.7506890805489184  0.0339848614451451
  0.8752957314749666  0.7488709153994469  0.0351144330208252
  0.6260651360140072  0.1239836882027812  0.0671276284086808
  0.3744339314005888  0.3751019227971416  0.0664554995858594
  0.6260855826113244  0.3747363423261286  0.0666447533815638
  0.3749026156872181  0.1242476222902285  0.0668322813997712
  0.1251764803042793  0.6259480738025355  0.0671292804888018
  0.6262994306034393  0.6258053137913110  0.0670064438316443
  0.1254476896859552  0.3749200753950302  0.0667108908644449
  0.6271380583605187  0.8757429147372973  0.0668383888394623
  0.3756333931610985  0.6251658635233067  0.0672492939439170
  0.8757335545334612  0.1248309219776020  0.0671448684073570
  0.8756373022569480  0.3748177554756733  0.0665325051459228
  0.1251664229520920  0.8754831806162666  0.0668004599551185
  0.8755433697478138  0.6236930482861520  0.0673458767485316
  0.3745859727044280  0.8747731175158467  0.0665080955333846
  0.8751461581665166  0.8758783725646397  0.0664788428868667
  0.1252904428043428  0.1244046209221058  0.0671641427775062
  0.7512735097582454  0.1242469804824932  0.0999538256361565
  0.5000908247646509  0.1235103941333939  0.0993307774628924
  0.0004635445118352  0.3750664846513069  0.0994017086881081
 -0.0002941722497180  0.8748789875137877  0.0993651430355861
  0.7515247215634593  0.3745463785247760  0.0995706403416287
  0.0003232818433196  0.6252697754391923  0.1001629948905177
  0.2505393867245035  0.8745654416490620  0.0997306139176807
  0.2511907046846411  0.6254191386851471  0.0998763688191683
  0.7509990819690934  0.6257084627106200  0.1002430384210007
  0.5005915148474643  0.8742496623471544  0.0987376391982916
  0.4998899019148438  0.3755647366047757  0.0988934465309961
  0.2506263291830513  0.3741480627136650  0.0998328656231109
  0.7521626866416778  0.8750117694865921  0.0999525276428771
  0.5013931928791593  0.6270101583741634  0.0998827384358066
  0.2511939148423247  0.1245108613760888  0.0998122564810325
  0.0005450376295336  0.1242491211009177  0.0999378292667387
  0.0007700312374633  0.9987744785212508  0.1325278009292719
  0.7526802873159067  0.4994202491187910  0.1323319709689776
  0.0026336740283004  0.4995358481218684  0.1324604747355191
  0.5009653739195762  0.9976966629946995  0.1317413790986277
  0.7532450570745041  0.9994416676330110  0.1327125736992877
  0.0020838310087816  0.2500523462828879  0.1321672668308725
  0.2527737844189059  0.9994487343270134  0.1323876708470469
  0.4993278072752383  0.2497442128009446  0.1311326764512873
  0.5014131829748756  0.5007086338059132  0.1317265418833260
  0.7518846303077986  0.2496781633680445  0.1325387130381988
  0.2532245434139121  0.4998975289933990  0.1321648625625812
  0.2518320161763113  0.2488036092134830  0.1329054389104832
  0.2517432759076324  0.7500329824186909  0.1330464147912029
  0.9989461906887352  0.7509892380315646  0.1327798805771470
  0.7536951924516143  0.7506374290096403  0.1333781912628464
  0.5042990498340477  0.7522342304319934  0.1329777108051964
  0.6237021067803411  0.2497494259256489  0.1633580443084727
  0.6263893607883665  0.9967873495215939  0.1638944898672607
  0.1272786235501343  0.9983678962404245  0.1642572822648644
  0.6266053699440104  0.4994613426705360  0.1641235197889423
  0.1289573257905728  0.4981702883091463  0.1645836129882445
  0.1264033719026569  0.2480266211597750  0.1652145722475369
  0.1244984608233518  0.7479140944684421  0.1647414492513354
  0.8779117100812700  0.5003200010868893  0.1653845085354996
  0.3779009113691471  0.9982123333298780  0.1654297228448634
  0.8780787788399635  0.2486537178738044  0.1653181294133338
  0.3780698635976750  0.4996467089801304  0.1652864373627956
  0.8773043525206387  0.9980434623644240  0.1664022828632392
  0.3779298029465565  0.2492365741481155  0.1656730228535543
  0.6298278965944965  0.7532927732240247  0.1663763729691847
  0.3790032247147436  0.7518166252965369  0.1654903614983308
  0.8769756675371392  0.7506113922827937  0.1677419336289512
  0.6222939799814412  0.1232570100287380  0.1946605035532553
  0.6222694466335035  0.3738048289972490  0.1963474223888385
  0.1338528762950292  0.3733943275607571  0.1974093041834300
  0.6309285383006824  0.6246699209063646  0.1969703123598284
  0.1277015315574448  0.8734135179751308  0.1967388847704899
  0.1248035568604726  0.6224734110131863  0.1974094920980855
  0.8797427379888726  0.3745162769753073  0.1977847253307246
  0.1243106442812983  0.1215294193657727  0.1974813603877608
  0.3804545778313325  0.6257615955527958  0.1975954710257480
  0.3817197541560386  0.3746721002443537  0.1989297092942826
  0.3799080273096251  0.1229543846896003  0.1983601778836687
  0.8780518276826244  0.1239507789677958  0.1989263572151022
  0.6337072316914415  0.8788611007842785  0.2000147999852100
  0.3802034674986354  0.8753945072806578  0.1997427013162188
  0.8791854871332087  0.6226306390774039  0.2000268094244028
  0.8764506656489959  0.8762058621055674  0.2014845090967501
  0.7455222112749450  0.1280853255332824  0.2271575826508050
  0.7498206213548088  0.3755702241866339  0.2267158604481671
  0.2531241853349666  0.6266493538996938  0.2283165826112069
  0.0076231406070398  0.3709084801730234  0.2292531286400512
  0.2523336787652395  0.1201245835894319  0.2289965922692317
  0.5063095111929095  0.6256518339284771  0.2297405275277525
  0.2517301553397042  0.8691161961254894  0.2306617477416147
  0.5054908098585039  0.1239465789908033  0.2313516698199302
  0.2585841067448157  0.3712244076278550  0.2320975108885156
  0.7538321927206463  0.6265842715056610  0.2324302626241832
  0.5036631026304561  0.3759255946367461  0.2336930711542268
  0.0062150396835473  0.8709908983907578  0.2311616439423911
  0.5076289814741027  0.8791506832998437  0.2326360288683130
  0.0015967693537607  0.1164846280966688  0.2327060174784892
  0.0039206215209866  0.6135318729038551  0.2334754244259829
  0.7549237606229898  0.8867982349788909  0.2371267586766716
  0.7290338199133074  0.2528949775230875  0.2583136349936462
  0.0337856434404827  0.2456362023573489  0.2594968926332438
  0.7312918726855219  0.4949162004556260  0.2602044025834285
  0.2402524058506539  0.5028112618582402  0.2602466362008940
  0.2402237318061206  0.2423181858458748  0.2623801255016846
  0.0280576788601924  0.7434736018399422  0.2607388245222368
  0.5271450673660054  0.7496497856371831  0.2615599458723620
  0.5266348639028203  0.2477829251091479  0.2637599823700963
  0.2304803586287022  0.9954215800643557  0.2604404551992162
  0.5271758670358834  0.5052231844400552  0.2640021632265283
  0.7322677025482243  0.7533866276742082  0.2636790840091063
  0.2331643558812467  0.7453179184702233  0.2634773389535661
  0.0368370094014148  0.4867411028706611  0.2649697286925674
  0.5297871675372445  0.0033029682921945  0.2652624176009668
  0.0237096564462141  0.9918072789298277  0.2658596763576896
  0.7336621449532708  0.0217285897656182  0.2673897746810895
  0.3820388839138452  0.4744538789676668  0.3109172147937352
  0.8796012869691642  0.7063666698299388  0.3103867339512776
  0.3815169674498505  0.2751162481861888  0.3128012074795389
  0.8049160913374092  0.1612620708757054  0.3157616713791715
  0.3815745604888814  0.7642862278639456  0.3177799467252242
  0.3766884527649509  0.9720355885954113  0.3163720109745417
  0.8302278023077065  0.5174749504651526  0.3221783502814965
  0.9882226745945408  0.2376207129715657  0.3335153417125979
  0.9922829723933044  0.4377516328376088  0.3420058435003131
  0.9833133154714414  0.9704738963643791  0.3413067716211275
  0.1079161527843129  0.0922065664278042  0.3679023265574506
  0.8882171780827414  0.8129219275765955  0.3677830648998035
  0.6867807394386322  0.2054736827828899  0.3758747376300162
  0.6975702782852079  0.5403244583137456  0.3765908586567389
  0.3127259622303512  0.0604782814636815  0.3823036522780986
  0.4125820163629150  0.4863768169169893  0.3855175009006552
  0.4126816982269088  0.6910832218765929  0.3887911084311239
  0.7106940473278706  0.8550145554033634  0.3877336955097105
  0.5941124217418411  0.3701361550877000  0.3883053149336899
  0.3552823867502831  0.2492716751091809  0.3911966065038461
  0.6029507287266747  0.6971004490341546  0.3969906945073927
  0.1006375758942815  0.5067047501044544  0.3991134252559622
  0.9514644319934943  0.0656091164729893  0.4045912199323283
  0.6724039018998147  0.0240947962365745  0.4160640346235590
  0.2597033922529425  0.3950675942376183  0.4179819706167385
  0.8461863023862372  0.2484470188547947  0.4202798712440979
  0.9803343889927310  0.3670930176149843  0.4359838109221947
  0.8343973070764171  0.7865442192634724  0.4370541645307455
  0.7386238562928221  0.6207926197279128  0.4395697850050999
  0.5068273803315454  0.2831589672488061  0.4438094455223359
  0.3029508078676253  0.7709383647296717  0.4458158019799416
  0.3031255644450328  0.9650462057220051  0.4503055227581972
  0.8508567202649577  0.9651645523109857  0.4558271337282565
  0.1648744511795409  0.6190462000929680  0.4553292876264432
  0.5957145469402686  0.1227802549598724  0.4680583909903205
  0.0729605870747106  0.2330952408094473  0.4743932672318230
  0.7481682200071201  0.2636175111515153  0.4817163640395011
  0.2097849686960027  0.4524153044290984  0.4851235620473020
  0.2141758919361862  0.1124904859906695  0.4878516215424916
  0.7089365711553662  0.4554507350746934  0.4887653978852107
  0.4013194891647049  0.8607143935598534  0.4965861923772236
  0.0224879296233394  0.4028179836457757  0.5019904831104675
  0.5259124336878758  0.4005866857167856  0.5077025582935105
  0.0475005751524498  0.1074139202511688  0.5235253055252931
  0.1169646226473331  0.6584418683431754  0.5258736699369387
  0.8923487013793940  0.0080741701962059  0.5260380222684428
  0.3501301911857976  0.2000565096440368  0.5275194657843160
  0.3527623296538958  0.4095027142753068  0.5322087138525642
  0.5220221843618165  0.0944388092625997  0.5352020170348538
  0.8651380514408693  0.4429467846788016  0.5437456561217784
  0.2720882822754969  0.7896007141345941  0.5465494465806072
  0.5201293827232237  0.9064113843170489  0.5510997595999499
  0.7639218922418238  0.2915934085656825  0.5591946031744133
  0.5779126392594862  0.3446185404216869  0.5734213344539778
  0.8212302328383062  0.1115372293049608  0.5782725276854039
  0.0085766141783401  0.7024259868807240  0.5797415120683697
  0.9483122906332313  0.9048457018100831  0.5842982866674402
  0.6910301665937866  0.9407170291291113  0.5837568132185290
  0.3564169212712919  0.6507434104224251  0.5888135315403012
  0.1608626118091659  0.6022443440015962  0.5916201071946278
  0.3250044083515329  0.1185177951727747  0.5914701182309451
  0.8425533557575942  0.6072706032916441  0.5929404003625387
  0.4375238876310726  0.4666057393387434  0.5935182781956245
  0.0008761614585068  0.1630324957595526  0.5941905472861623
  0.2699965586461615  0.9295690802637400  0.5994552109567787
  0.5324413888415388  0.1708744636105495  0.6001549116859783
  0.7430240290546813  0.7575403801596887  0.6068389500690042
  0.0888593019721163  0.0048156359142475  0.6162522416747315
  0.4495065102340722  0.8961235373588328  0.6234156515053449
  0.5800903302374057  0.0234845680024097  0.6405630889461734
  0.0027894963500164  0.3036422837954554  0.6455186223163082
  0.0847232440515759  0.4948924037147717  0.6496618647242478
  0.4292435446320574  0.6753186951267413  0.6537780696947701
  0.9534731022100799  0.9217318488378728  0.6562065839368080
  0.8005679764616773  0.6389679583403942  0.6570128565660750
  0.6295591960447030  0.7090194964236615  0.6615776756810302
  0.2618981352776498  0.1319706596178573  0.6623061384878277
  0.4095120457344856  0.4869869967684733  0.6666122030219067
  0.4225751876782944  0.8222702530297925  0.6894222107736729
  0.0820501125576686  0.1681528550571355  0.6949189437260817
  0.9717298643978163  0.6087114800883654  0.6951207822503638
  0.8638396027566357  0.3122612750597685  0.6970376669124547
  0.2357674475790754  0.4346637741397803  0.7036524663228062
  0.3132165938920135  0.9844132852611336  0.7083474651435889
  0.6752004239172935  0.0103614572923731  0.7105241635829469
  0.3166436921876196  0.2583296467937684  0.7106092143963173
  0.0004740559444765  0.8057573741976245  0.7116182724643595
  0.8581595492277490  0.9424516856179294  0.7178666576982962
  0.7023270229692132  0.3575849438840255  0.7239667253481762
  0.5917304463312364  0.7844511456108986  0.7244511729363394
  0.5394755219556951  0.4609774210737978  0.7244134042806423
  0.7610361555262632  0.1786797950535854  0.7324726676492347
  0.9819800394912522  0.0738085990020151  0.7427738141774151
  0.1336776879075347  0.9243794395529334  0.7448112098114578
  0.4428818249380890  0.3221702106739168  0.7571623949488817
  0.1927174459459837  0.1840759960622722  0.7573843953510069
  0.8632314387345166  0.3799861099689247  0.7613543372574335
  0.9979588732604424  0.5230884677060631  0.7631336110363639
  0.6178077755485346  0.6118717612450881  0.7640064065091148
  0.5896504161250073  0.9368274083492636  0.7682287727044285
  0.4108620985275500  0.0141494505456377  0.7728567462393923
  0.1906929599863931  0.4931257589618497  0.7748495015183776
  0.2249807636178242  0.0040078122024215  0.7984355076218764
  0.5115993396108091  0.1806257149411990  0.7981196282356007
  0.2605037720932167  0.3202358846855600  0.8011042821567748
  0.8107647353652571  0.2112407522223601  0.8016102785612870
  0.9736752074546132  0.1292305610707909  0.8177282016391987
  0.9646469104192187  0.6301970132440050  0.8201171618271177
  0.7508680489541812  0.6309506444104575  0.8201659566818222
  0.2692517857375520  0.6261363866558388  0.8190826223890358
  0.4729709329678491  0.6246928935697609  0.8193091608031066
  0.6283717496948356  0.0466845418690022  0.8230731013843918
  0.0063475993560421  0.2711182433864400  0.8685663439998049
  0.7484343352313138  0.2756875251197745  0.8669708339033141
  0.9988196759877529  0.9830237575079656  0.8697875631072506
  0.4985592667499382  0.2682457965300966  0.8687921017549982
  0.9965842403957874  0.7758446710292687  0.8701460213121425
  0.2443151032161837  0.7711633425331322  0.8698806780832543
  0.2402848070345123  0.9759565997778239  0.8716021899192643
  0.7397863242886603  0.7772860025405129  0.8695921205699814
  0.9978848207823698  0.4774866827073579  0.8721149494157017
  0.2557941747107944  0.2789484269855489  0.8722169935025320
  0.7439132021583758  0.4864209814713756  0.8745997253032669
  0.4978163230209354  0.4743382203806392  0.8731162022911597
  0.4964675517368396  0.7737758266470681  0.8736056542019643
  0.5054472851351171  0.9733259394088167  0.8750522949670462
  0.7412528484709249  0.9804182400720063  0.8745254391035684
  0.2489233949948285  0.4878627766250850  0.8809928509183834
  0.8760143647647800  0.2494907312668558  0.8974284882422355
  0.3718502983726598  0.0024468745112067  0.8999164111334083
  0.6261116606814570  0.2463820015254729  0.8995511675852712
  0.8728521004222989  0.0024457773643558  0.9008574308934246
  0.8693560399646838  0.7519014938252320  0.9001869315012749
  0.1281927801421961  0.2507873251995527  0.9017769774432706
  0.1201354829641693  0.7508460572826692  0.9022636693292208
  0.3685007489658612  0.7504685543348546  0.9029873370079143
  0.8735858039309687  0.5006875510439831  0.9031191197191217
  0.3794787548162389  0.2518068698668303  0.9036419429078377
  0.1191717128330365  0.9987054217703655  0.9046196246704908
  0.6224398182976104  0.7520328661116454  0.9052686592414453
  0.6202313348661487  0.4969113078747214  0.9059872333261301
  0.1169116266768850  0.4999121509579212  0.9067894631153266
  0.3792412872423162  0.4982939417212739  0.9081210360753954
  0.6239294086974803  0.9911131955987825  0.9098972508598560
  0.8748948915464740  0.1282198495055244  0.9327713857527635
  0.3742015094862888  0.1245475629741914  0.9344960401478304
  0.8752688378151413  0.6277291483205405  0.9344029501644682
  0.1243641140324551  0.1268231574941154  0.9346875122739985
  0.8750613361407518  0.3709047488401609  0.9341765161323182
  0.8734019868967218  0.8766127358287894  0.9345677374167496
  0.3713563024732408  0.8780941836133800  0.9348302980562863
  0.6247109412372416  0.1263476338425785  0.9354501941666072
  0.6249248324677933  0.3679575179905964  0.9361384958291182
  0.1208879357206371  0.6284586713487201  0.9363488767306100
  0.1217123013665847  0.8732865506205830  0.9368728163423321
  0.6238529583962554  0.6244535050847223  0.9367013956344175
  0.1249561646886458  0.3717866134093988  0.9374654173039858
  0.3762281835989126  0.6282597502146916  0.9375268845881102
  0.3773103830800197  0.3716663446245398  0.9393270521527168
  0.6237795532037365  0.8685680241766200  0.9419076004534003
  0.9987125940734899  0.1267672911399898  0.9671537303130056
  0.7518791542406424  0.1267581776860267  0.9673081744424161
  0.4988944541483034  0.1255171761614127  0.9681080968799765
  0.2492600645338311  0.1252065622376583  0.9676986498606516
  0.7513787257398198  0.3722693027232334  0.9680371668097048
  0.9981736183653412  0.3729072266021985  0.9685767160176820
  0.7514492833237817  0.6250294419553067  0.9681257429375254
  0.9966708156593721  0.8746149445637881  0.9687023825952155
  0.2477969973731797  0.6258004147017066  0.9685335549817228
  0.2484221532229965  0.8760123248272819  0.9684829075463230
  0.9973113948919478  0.6276797171670884  0.9691701878237752
  0.4932425465670643  0.8746881050438744  0.9699003493687894
  0.5032913502831263  0.3723669980627234  0.9703839853779963
  0.2496165667242813  0.3743302945426644  0.9700079695359605
  0.5009758874298104  0.6276045385577280  0.9702762360850726
  0.7537171911290583  0.8742279778832797  0.9703170208883461
  0.1351887121301582  0.2437355249180442  0.2765735618570293
  0.1407769570483398  0.5001276480540475  0.2787522938029872
  0.6305028911716599  0.2576978896110746  0.2781550701771562
  0.6311746257378027  0.4996408526786508  0.2785164979072331
  0.6288945330308885  0.7430316776279222  0.2783449162522926
  0.1291340748034844  0.7431261215274482  0.2781959221457155
  0.1293528338786661  0.0004458278864405  0.2780974592353067
  0.6301341335725342  0.0135341126479231  0.2836741259702697
  0.8045503619703517  0.2458864416579572  0.2889714304697402
  0.8010879569884827  0.4563070435381318  0.2893763138493123
  0.2994765234916181  0.5290319401451746  0.2940530882344638
  0.9667067912699713  0.7577089118345718  0.2948318976389770
  0.2879013658048877  0.0020267448131123  0.2957304114045115
  0.9728309840577173  0.2596992110623240  0.2938788952133463
  0.4693809390350032  0.7340962266509342  0.2964064666312733
  0.7864596432936933  0.7587182041765300  0.3002392659168689
  0.2851246791014382  0.7419875135782321  0.3002882166901307
  0.2882514236972977  0.2290098427118616  0.3002060093495517
  0.4731010316824462  0.2268873392334510  0.2998568292535387
  0.4734204922330454  0.5268236363232388  0.3000659632627458
  0.8000096009025204  0.0559906834037176  0.2998902460965261
  0.4701698097804117  0.0080333023478906  0.3001328655633019
  0.3863155007711424  0.3735323010304270  0.2942841773939223
  0.9598282646414970  0.9861090993950884  0.3006466501581241
 -0.0077929073774350  0.4576101134549153  0.3012082155177390
  0.8874065792548864  0.5991450303591268  0.3039646809050773
  0.3866704744485285  0.8689354150630079  0.3296011078828180
  0.8920231132768994  0.1834578132808030  0.3399463021699051
  0.7136607769225422  0.1687239422599150  0.3385961590238921
  0.7393852403684175  0.5597035996413942  0.3389670232291768
  0.0755150552725201  0.1766248723240971  0.3442647702376178
  0.8844946869659820  0.4566476790745373  0.3501693276303184
  0.0887570228642604 -0.0062354774778423  0.3501822999831479
  0.8864916435778424  0.7133234615416337  0.3510489708050581
  0.3552642406272897  0.4848969959333365  0.3506102523307598
  0.3842887620778149  0.6937230457881722  0.3491684918289242
  0.0062191155295343  0.3318471040713255  0.3557697506937729
  0.3740565114216821  0.0309321323042553  0.3502663893291914
  0.3883027478388202  0.2742905840247211  0.3534043402317913
  0.9725597842649732  0.8634447237358277  0.3497780617501721
  0.0570047341488506  0.5148574358146734  0.3608367226123729
  0.7955525704838626  0.8729939423771527  0.3613748208763841
  0.9161906974402361  0.0290193554834285  0.3667185382766044
  0.6012384010614346  0.2735663999926033  0.3669585453626896
  0.2160191248257920  0.1090429987662751  0.3725371415873047
  0.6562188781049105  0.7696911357019036  0.3721538969982188
  0.6032019260443088  0.5995490744226132  0.3773696792188962
  0.5037190771385277  0.4289285049360112  0.3805926335288450
  0.6858281635382300  0.4310346423815552  0.3830381770584770
  0.6434286466165777  0.9424955629943591  0.3894567297830941
  0.4307610037823515  0.5875016563427825  0.3989105700693641
  0.3724675758314557  0.1434490423517871  0.3960064503095510
  0.6470811506416385  0.1149226114427962  0.3945850353512861
  0.5033497751903494  0.7451113946689548  0.4003262106215045
  0.1984727399530085  0.4585635291293113  0.3934825699659589
  0.7547223001076386  0.2692041149627092  0.3988156835838716
  0.2575868566188710  0.2959708730647388  0.3997452140623795
  0.0580670727218492  0.0976780072120657  0.4051635087395060
  0.9127532525140238  0.7867091438365126  0.4070470941672019
  0.7731449751207250  0.5721886768848302  0.4047964253364299
  0.8980745021818707  0.1579816285076613  0.4105269201032447
  0.3282707105422408  0.7316532581623066  0.4085051785007718
  0.8984759646813952  0.3426575309468387  0.4109975716678627
  0.3317910527245856  0.9827751589617392  0.4104772281845934
  0.3566150013493514  0.4445055893537077  0.4171713173702251
  0.4280955850055268  0.2934668172280233  0.4163865055924544
  0.0255515234847562  0.4579372125403467  0.4222520137141690
  0.1065558089024027  0.6030087112838559  0.4201034316620926
  0.7332404290427029  0.8253813905815519  0.4271353858776289
  0.5913673254263334  0.3410678399808668  0.4281750728188674
  0.6412598634437360  0.6718985137446019  0.4350031575189982
  0.7735939623019762  0.0167206691439136  0.4329678927593494
  0.9450990745140887 -0.0081815438822335  0.4359682205239833
  0.0424756433338950  0.2757149355144349  0.4382909297733555
  0.2540914000020998  0.8689785063144874  0.4448865552136295
  0.6003952540931258  0.0271977950681506  0.4472223069076814
  0.8163829074091491  0.6882308687047600  0.4554127130756877
  0.2099016255046905  0.7156396122868424  0.4506765188754537
  0.5042006132327486  0.1749904687365599  0.4548336304413964
  0.2281788433635134  0.3712122681851141  0.4569123038927913
  0.8421515221794427  0.2419576185790319  0.4617394867470993
  0.8695951692370468  0.8577726980890414  0.4657320650833390
  0.2425197533603861  0.5443633601764125  0.4661646915761215
  0.2153770402219766  0.0193560562446805  0.4661447067291994
  0.1730797910039270  0.1953688220368739  0.4650582224119519
  0.7269647606949393  0.5428521695211732  0.4669779808597442
  0.6853903781303482  0.1847873530719511  0.4662271966205610
  0.7212105866705352  0.3630721356019779  0.4668266215872513
  0.3922392364526189  0.7700685283315585  0.4719035316851088
  0.9434364710040807  0.4008445904028310  0.4730862479834070
  0.3989550833418134  0.9541273522476816  0.4724163209423424
  0.4833482125317521  0.3423439574209672  0.4769351530733226
  0.0923086516637376  0.6415916995608391  0.4857148377157440
  0.0047735281349854  0.1555016395226227  0.4891294439627031
  0.8239672763755358 -0.0005467277785770  0.4939216758829058
  0.1041479621478339  0.4720331298443314  0.4942870642912341
  0.3187184101114574  0.1423428219836465  0.4941891198705708
  0.6089446466480186  0.4730870865106016  0.5052473436510104
  0.0742013124553309  0.3061797240503459  0.5056614105686236
  0.6007067942736295  0.0849457913971445  0.5067368046088691
  0.7872466022348703  0.4529646065071482  0.5165430395950407
  0.2570125441880838  0.4563050867595694  0.5224552728460307
  0.4395223979742844  0.4669652756757229  0.5167122774293877
  0.1560671457083980  0.0851898746518424  0.5220166791332580
  0.4996519150161254  0.8466964694161396  0.5164605396449211
  0.7556119085602073  0.2448849566738132  0.5221166445839649
  0.3139707965398356  0.8711194779512552  0.5225646756695964
  0.0022734479594787  0.0066326256689101  0.5216091888228954
  0.3363465315612166  0.3058309162838954  0.5217136520515235
  0.4573640466050478  0.1803688793045950  0.5277277602645387
  0.1854859971318468  0.7454174103147310  0.5274497731001166
  0.9723831538430913  0.4469172532919333  0.5343196824892948
  0.5489398792639992  0.3166513223555144  0.5341802508785725
  0.0148033804318579  0.6857210825100426  0.5387015410135710
  0.8570474171801934  0.1066853029397300  0.5393777359798011
  0.4647826786554025  0.0016871163841745  0.5446805221819925
  0.1548616758318723  0.5745684841101527  0.5506200746943545
  0.8783900057015608  0.9253844147641226  0.5528145699123888
  0.0315284707682119  0.1789277363895096  0.5548124414736206
  0.6308588265753534  0.9144919462938463  0.5498534920392805
  0.3563599788832309  0.7176818681952294  0.5550451904512775
  0.8592240972950611  0.3433231462623044  0.5612883118881503
  0.2882506374611481  0.1841749328668849  0.5613992818256137
  0.8427276185243603  0.5262673745091699  0.5660925154599729
  0.5847906429698781  0.1280540357884399  0.5671289322810764
  0.3564363290909489  0.4138618302520184  0.5732490164224004
  0.6866846076840079  0.3607073821989915  0.5725020574412497
  0.2245791668001922  0.8473394524145349  0.5775137105814011
  0.7685997564928392  0.2057619239697284  0.5842534702086286
  0.9667976950247984  0.7998347074704748  0.5839289188627311
  0.3134313311444873  0.0145877037950263  0.5781810828466538
  0.7727751531728946  0.6848591676860094  0.5773323105967286
  0.5430654663053842  0.4445985359657487  0.5832997616911596
  0.4324717566290321  0.5730039100358798  0.5829397344507029
  0.7548359953015040  0.0282594165626413  0.5837826917810387
  0.0441762694089358  0.9586396707235816  0.5828136099832338
  0.4851515695701673  0.8569122457167063  0.5862363977280682
  0.7564790773487386  0.8546535324256482  0.5888417824736361
  0.9483039239444351  0.6297812510410947  0.6005562574861096
  0.1060799324459046  0.6973731466754944  0.5998343693676893
  0.5415643312841892  0.2806609800790184  0.6050804296528024
  0.9056935555507722  0.1111288182130414  0.6054738742520580
  0.2628888617377660  0.6139416504187950  0.6061374139959720
  0.4277131283094512  0.1436464389133608  0.6002438655605458
  0.0866017911243556  0.1136271534420999  0.6114233704347037
  0.0012091420276397  0.2682569275504995  0.6060824760098511
  0.1293949018524159  0.5121705803859429  0.6121264466081215
  0.6279329721258046  0.9480628480165399  0.6167538725357706
  0.4018968037438598  0.7161593022715371  0.6167510074516338
  0.1883945506371106  0.9669660717127437  0.6223526837639104
  0.8974071702752497  0.9155825992161249  0.6208882680412153
  0.2560788954687810  0.1425142677659511  0.6215557020518837
  0.3407222686445185  0.8870174521021001  0.6269546110871674
  0.6410641918476732  0.7439485094405389  0.6219882104621779
  0.8134347713045195  0.5584020006494237  0.6286692686192689
  0.4290898889641417  0.4287771379384240  0.6325308794624780
  0.5861540785439482  0.1321167887879881  0.6334900006034463
  0.4732477672145076 -0.0025704989080516  0.6381008482816639
  0.8124655987829333  0.7405204006764161  0.6390716729955569
  0.0212460940576612  0.4103154724836398  0.6394568775815018
  0.0409908266186489  0.9856105563416960  0.6519650516162394
  0.4852721204093566  0.8321655956164491  0.6549137215779757
  0.3703068241348485  0.5825909334144094  0.6555518985155214
  0.5359872899245106  0.6503471205301028  0.6611638781733910
  0.8987603108910318  0.2983565390222749  0.6582678818288089
  0.0286786426072966  0.5855319908634999  0.6606445604233461