GaN_ONH                                 
    1.000000000000000     
    15.8909244537000003    0.0000000000000000    0.0000000000000000
     0.0000000000000000   16.5143318175999987    0.0000000000000000
     0.0000000000000000    0.0000000000000000   15.4982528686999999
   Ga   N    O    H 
   180   179     1     1
Direct
  0.0997797813411366  0.0557607052838820  0.3333129279080482
  0.0995293227513482  0.0549907605655323  0.6669898185981168
  0.0998424776431261  0.0554163998593518  0.0001730265706162
  0.1001791099783145  0.3889777982978166  0.3336352061294764
  0.0998722388395300  0.3885648267011687  0.6667952607188199
  0.0998216821698735  0.3887626303273516  0.0003737215746695
  0.1000858002089224  0.7225219459346185  0.3328487592090146
  0.0998936648035969  0.7217529937887079  0.6663244030799271
  0.1000502103662645  0.7221269657325065  0.9993727244898158
  0.2999179855804039  0.0554822756897874  0.3334796014656223
  0.2998274880021688  0.0548522593225534  0.6668960186677808
  0.2999589124181183  0.0552864715825444  0.0002448117873145
  0.3003309013202258  0.3892001765180751  0.3347685952294577
  0.2979982358193591  0.3851018670550899  0.6707131526211697
  0.3000589836597942  0.3887001758123325  0.0001991576720382
  0.2997667458061347  0.7228951499383907  0.3335001837509777
  0.3003275454789562  0.7215868029059634  0.6652709286047227
  0.3000301198494791  0.7225156539254884  0.9983572017442156
  0.5000819964195987  0.0554822756897874  0.3334796014656223
  0.5001724639978308  0.0548522593225534  0.6668960186677808
  0.5000410395818823  0.0552864715825444  0.0002448117873145
  0.4996691406797749  0.3892001765180751  0.3347685952294577
  0.5020017461806370  0.3851018670550899  0.6707131526211697
  0.4999410573402027  0.3887001758123325  0.0001991576720382
  0.5002332951938695  0.7228951499383907  0.3335001837509777
  0.4996724655210454  0.7215868029059634  0.6652709286047227
  0.4999698921505261  0.7225156539254884  0.9983572017442156
  0.7002202236588642  0.0557607052838820  0.3333129279080482
  0.7004706362486565  0.0549907605655323  0.6669898185981168
  0.7001575343568794  0.0554163998593518  0.0001730265706162
  0.6998208720216810  0.3889777982978166  0.3336352061294764
  0.7001277441604695  0.3885648267011687  0.6667952607188199
  0.7001783368301215  0.3887626303273516  0.0003737215746695
  0.6999141667910759  0.7225219459346185  0.3328487592090146
  0.7001063321964035  0.7217529937887079  0.6663244030799271
  0.6999497786337354  0.7221269657325065  0.9993727244898158
  0.8999999759999966  0.0556937687599466  0.3334029668245944
  0.8999999759999966  0.0553050292578302  0.6667912145956471
  0.8999999759999966  0.0554533561104464  0.0000996073543877
  0.8999999759999966  0.3890406106444649  0.3333811644306191
  0.8999999759999966  0.3888459119439134  0.6667130443036815
  0.8999999759999966  0.3889426571592144  0.0001012910062839
  0.8999999759999966  0.7222375373729231  0.3329068677411975
  0.8999999759999966  0.7218067064679139  0.6664321548327432
  0.8999999759999966  0.7220729745280378  0.9997403676872134
 -0.0000641296894879  0.2224184520874612  0.3335667984134617
  0.9998367662238673  0.2220786605508852  0.6669449240392864
  0.9999265787526199  0.2221865708041578  0.0002543416674310
 -0.0000301424979279  0.5556159615723101  0.3331131215049235
  0.0002577561706202  0.5553051928045448  0.6661892001934135
  0.0000053261390340  0.5555397139294012  0.9997026783502376
  0.9999221785309700  0.8889563047571645  0.3331224910433398
  0.9998347256515820  0.8884089450743099  0.6666111057371419
  0.9999313940297551  0.8887482965119774 -0.0001243097033120
  0.2000186525656016  0.2222342101048344  0.3335277733206634
  0.1991979031590277  0.2206711654574850  0.6674371729047421
  0.1997651200276797  0.2219021446556746  0.0007814770504132
  0.1999822422766024  0.5556391738125830  0.3316935558386919
  0.2008793455525664  0.5548644404139196  0.6656692243697109
  0.1996670840579941  0.5554211460999957  0.9990411726939098
  0.1996211665043879  0.8892794735882238  0.3330574034594831
  0.1997968694475485  0.8887365075589201  0.6667899501611624
  0.1999161693420432  0.8887580374090995  0.9995817310876448
  0.4000000059999991  0.2220415634776453  0.3339891548134020
  0.4000000059999991  0.2209355788250357  0.6676649599943614
  0.4000000059999991  0.2216502821447366  0.0011152243550922
  0.4000000059999991  0.5606461159760133  0.3216284694471119
  0.4000000059999991  0.5511378477884654  0.6640109090633272
  0.4000000059999991  0.5552726560671578  0.9992882707290531
  0.4000000059999991  0.8890430073465888  0.3328999174271388
  0.4000000059999991  0.8884808667034221  0.6660367538513865
  0.4000000059999991  0.8887029864876416  0.9996391787140666
  0.5999813444343988  0.2222342101048344  0.3335277733206634
  0.6008020938409727  0.2206711654574850  0.6674371729047421
  0.6002348769723208  0.2219021446556746  0.0007814770504132
  0.6000177837233970  0.5556391738125830  0.3316935558386919
  0.5991206964474343  0.5548644404139196  0.6656692243697109
  0.6003329869420128  0.5554211460999957  0.9990411726939098
  0.6003789044956115  0.8892794735882238  0.3330574034594831
  0.6002031135524512  0.8887365075589201  0.6667899501611624
  0.6000838726579574  0.8887580374090995  0.9995817310876448
  0.8000641416894861  0.2224184520874612  0.3335667984134617
  0.8001632457761380  0.2220786605508852  0.6669449240392864
  0.8000734332473853  0.2221865708041578  0.0002543416674310
  0.8000301544979264  0.5556159615723101  0.3331131215049235
  0.7997422408293802  0.5553051928045448  0.6661892001934135
  0.7999946858609641  0.5555397139294012  0.9997026783502376
  0.8000778334690353  0.8889563047571645  0.3331224910433398
  0.8001652863484232  0.8884089450743099  0.6666111057371419
  0.8000686169702466  0.8887482965119774 -0.0001243097033120
  0.0999007120723102  0.2778396876367744  0.1671007696167707
  0.0999921088984313  0.2779441563218067  0.5002895864487579
  0.0998821573534696  0.2775711217457952  0.8337659179285288
  0.0997670226208653  0.6112899141434394  0.1662109203870429
  0.1008813489070750  0.6111757008826334  0.4992256885069958
  0.1001736229590808  0.6108764101655167  0.8325780869414616
  0.0998564465398013  0.9446095650061607  0.1664788365726202
  0.0988575669672440  0.9453760734550434  0.5000561458927314
  0.0998210787714042  0.9441511586420431  0.8333804753179909
  0.3000313454151931  0.2778369143409125  0.1673181518988303
  0.2989930890439840  0.2749034761925239  0.5009821079206381
  0.2996846294225101  0.2764048911400041  0.8350994644631522
  0.2985122513617409  0.6123176237549861  0.1631027913752528
  0.2983134132886700  0.6170996530891462  0.4975165889758634
  0.3004847507864365  0.6104898275482811  0.8323022005372758
  0.2999228237006418  0.9444498812795705  0.1664674973354788
  0.2996101483258623  0.9447070459790645  0.4997785733187909
  0.3000356436125673  0.9440871713039399  0.8332275292973975
  0.4999686955848039  0.2778369143409125  0.1673181518988303
  0.5010069229560142  0.2749034761925239  0.5009821079206381
  0.5003154425774854  0.2764048911400041  0.8350994644631522
  0.5014877306382620  0.6123176237549861  0.1631027913752528
  0.5016865697113293  0.6170996530891462  0.4975165889758634
  0.4995152612135617  0.6104898275482811  0.8323022005372758
  0.5000771882993634  0.9444498812795705  0.1664674973354788
  0.5003898936741384  0.9447070459790645  0.4997785733187909
  0.4999643983874333  0.9440871713039399  0.8332275292973975
  0.7000992549276878  0.2778396876367744  0.1671007696167707
  0.7000078211015675  0.2779441563218067  0.5002895864487579
  0.7001178176465360  0.2775711217457952  0.8337659179285288
  0.7002329293791345  0.6112899141434394  0.1662109203870429
  0.6991186040929287  0.6111757008826334  0.4992256885069958
  0.6998263880409136  0.6108764101655167  0.8325780869414616
  0.7001435284601975  0.9446095650061607  0.1664788365726202
  0.7011424150327590  0.9453760734550434  0.5000561458927314
  0.7001788742285927  0.9441511586420431  0.8333804753179909
  0.8999999759999966  0.2779658343855942  0.1668466453906863
  0.8999999759999966  0.2782840117175320  0.5002088692781386
  0.8999999759999966  0.2777713390570293  0.8335395285139149
  0.8999999759999966  0.6111612954862232  0.1664321731909678
  0.8999999759999966  0.6109678626770542  0.4996754558916811
  0.8999999759999966  0.6109150239075939  0.8329284747829038
  0.8999999759999966  0.9445137470269072  0.1666129209874234
  0.8999999759999966  0.9445557205152471  0.4999314081800079
  0.8999999759999966  0.9442413470544661  0.8333144731744984
  0.9999165537902532  0.1112665777159671  0.1668001744459866
  0.9996608532527019  0.1116825239121604  0.5001837497193000
  0.9998934876945730  0.1109970144425621  0.8335586999778630
  0.0000190449362616  0.4445780090850516  0.1667326523798244
  0.0003220065016035  0.4445179499871504  0.4999286407033227
  0.9999207759759978  0.4443765213041909  0.8332831152118227
  0.0000208721250844  0.7778475940954237  0.1663219119037412
  0.9995613318093660  0.7776286573253881  0.4996870985741702
 -0.0000440114897768  0.7775048515556370  0.8331220306379580
  0.1999687258804348  0.1110777509678811  0.1669142098206154
  0.1993608914987301  0.1104016539318035  0.5002255615346463
  0.1997809287037800  0.1104904669509133  0.8338361768906020
  0.2000582764007216  0.4444729306380840  0.1666202006447227
  0.2014352653627471  0.4442166820151035  0.5006138116527689
  0.1994141865910465  0.4442149923274757  0.8340441621194341
  0.1998709811417007  0.7781709926798946  0.1661282169663075
  0.1973723421982317  0.7809688483314779  0.5003967016308757
  0.2000087580986508  0.7774297726291421  0.8323564955132968
  0.4000000059999991  0.1109697338032633  0.1671238774687650
  0.4000000059999991  0.1102392398483785  0.5004169581819904
  0.4000000059999991  0.1104942856970089  0.8337862429984091
  0.4000000059999991  0.4448537889532986  0.1669166379906088
  0.4000000059999991  0.4321501142399886  0.5098384044030547
  0.4000000059999991  0.4434794074186443  0.8328626697977193
  0.4000000059999991  0.7778683969217619  0.1661270420415856
  0.4000000059999991  0.7791407414593657  0.4984396888471505
  0.4000000059999991  0.7774381087754803  0.8318946203525575
  0.6000313161195656  0.1110777509678811  0.1669142098206154
  0.6006391655012757  0.1104016539318035  0.5002255615346463
  0.6002190832962252  0.1104904669509133  0.8338361768906020
  0.5999417205992790  0.4444729306380840  0.1666202006447227
  0.5985647616372555  0.4442166820151035  0.5006138116527689
  0.6005858104089542  0.4442149923274757  0.8340441621194341
  0.6001290598583033  0.7781709926798946  0.1661282169663075
  0.6026276698017734  0.7809688483314779  0.5003967016308757
  0.5999912689013456  0.7774297726291421  0.8323564955132968
  0.8000834582097449  0.1112665777159671  0.1668001744459866
  0.8003391587472962  0.1116825239121604  0.5001837497193000
  0.8001065243054252  0.1109970144425621  0.8335586999778630
  0.7999809450637346  0.4445780090850516  0.1667326523798244
  0.7996780324984005  0.4445179499871504  0.4999286407033227
  0.8000792360240003  0.4443765213041909  0.8332831152118227
  0.7999791678749163  0.7778475940954237  0.1663219119037412
  0.8004386801906392  0.7776286573253881  0.4996870985741702
  0.8000440234897822  0.7775048515556370  0.8331220306379580
  0.0998935001306031  0.0557620339579909  0.1257501096884843
  0.0991118891330975  0.0560465983974060  0.4588980714393811
  0.0997542617585519  0.0552425112859903  0.7925783635359553
  0.0999856763269610  0.3888716944710867  0.1259873492079072
  0.1007198340932113  0.3893162092148416  0.4593436244585511
  0.0997420933857700  0.3886140345679582  0.7924437548469694
  0.0999971618615977  0.7222878327730272  0.1250426987668435
  0.0995249011312199  0.7223691474088734  0.4585987134515451
  0.0998354337253704  0.7219095224972458  0.7918458014990458
  0.2999860042557196  0.0556448280305296  0.1258280703197026
  0.2996890415649666  0.0557335782119671  0.4590900080029166
  0.2998928934983611  0.0552368096198562  0.7925489641906476
  0.3002694422586371  0.3890361235667833  0.1262043045498971
  0.2995576791628799  0.3857020372404558  0.4602295748176762
  0.2987589690124256  0.3873879391561417  0.7955215919409802
  0.2998675715540165  0.7233595514198570  0.1237239631206165
  0.2961849818652106  0.7287358972595531  0.4590227187654103
  0.2999635711861465  0.7215893195243098  0.7910425211055196
  0.5000140077442856  0.0556448280305296  0.1258280703197026
  0.5003109404350363  0.0557335782119671  0.4590900080029166
  0.5001071485016397  0.0552368096198562  0.7925489641906476
  0.4997305697413611  0.3890361235667833  0.1262043045498971
  0.5004422728371204  0.3857020372404558  0.4602295748176762
  0.5012410729875747  0.3873879391561417  0.7955215919409802
  0.5001324694459804  0.7233595514198570  0.1237239631206165
  0.5038150301347875  0.7287358972595531  0.4590227187654103
  0.5000364408138589  0.7215893195243098  0.7910425211055196
  0.7001065048693909  0.0557620339579909  0.1257501096884843
  0.7008881078669030  0.0560465983974060  0.4588980714393811
  0.7002457652414508  0.0552425112859903  0.7925783635359553
  0.7000143206730395  0.3888716944710867  0.1259873492079072
  0.6992801699067863  0.3893162092148416  0.4593436244585511
  0.7002579036142307  0.3886140345679582  0.7924437548469694
  0.7000028501384010  0.7222878327730272  0.1250426987668435
  0.7004750888687831  0.7223691474088734  0.4585987134515451
  0.7001645332746279  0.7219095224972458  0.7918458014990458
  0.8999999759999966  0.0556400809172058  0.1257180601866912
  0.8999999759999966  0.0557628482331127  0.4590737482055762
  0.8999999759999966  0.0553656690098798  0.7924309200833005
  0.8999999759999966  0.3890502392929980  0.1257604780823064
  0.8999999759999966  0.3893454469108565  0.4590351482783200
  0.8999999759999966  0.3888227220897666  0.7923347205859597
  0.8999999759999966  0.7222243286435410  0.1253927382737514
  0.8999999759999966  0.7219147664047528  0.4585314158575519
  0.8999999759999966  0.7219746392580302  0.7920293506451342
 -0.0000448976818897  0.2223771757498615  0.1258768266531512
  0.9998285137357202  0.2227761932639282  0.4591988224080972
  0.9999096237857829  0.2221019517294887  0.7925810631006299
  0.9998961505659625  0.5555836842359351  0.1253760368146364
  0.0005489267662975  0.5556196654942119  0.4588141364795177
  0.0000562047994125  0.5553715257395302  0.7918381205879587
  0.9999305980701785  0.8889506463988152  0.1254587584125296
  0.9996785163043226  0.8887863157504116  0.4588079694349595
  0.9999094175625450  0.8885800272183260  0.7922296265984736
  0.1999576531549808  0.2223193753961935  0.1263569301938846
  0.1990395117493167  0.2211764642542310  0.4590943281127822
  0.1996406550729635  0.2215108037873237  0.7930405477183248
  0.1991522439791444  0.5552417704195233  0.1243675853333033
  0.2024776603444680  0.5554913092511943  0.4577613408231656
  0.2002813310881503  0.5551279087102750  0.7914859668614799
  0.1998156940322537  0.8892153138358665  0.1251820592636344
  0.1986125191170565  0.8912069367996316  0.4586411037996442
  0.1999072020320912  0.8887842433057446  0.7922895395339731
  0.4000000059999991  0.2221555483198942  0.1266043507378388
  0.4000000059999991  0.2212450216349802  0.4597121037698206
  0.4000000059999991  0.2217030663665016  0.7933303017337965
  0.4000000059999991  0.5560711595228932  0.1253303204795860
  0.4000000059999991  0.5545278953097381  0.7907759984776468
  0.4000000059999991  0.8890407096546861  0.1253064373320592
  0.4000000059999991  0.8904116910469927  0.4584750060784714
  0.4000000059999991  0.8886908985668066  0.7917155897732109
  0.6000423438450130  0.2223193753961935  0.1263569301938846
  0.6009605442506849  0.2211764642542310  0.4590943281127822
  0.6003593429270409  0.2215108037873237  0.7930405477183248
  0.6008477240208504  0.5552417704195233  0.1243675853333033
  0.5975223816555328  0.5554913092511943  0.4577613408231656
  0.5997186659118503  0.5551279087102750  0.7914859668614799
  0.6001843629677448  0.8892153138358665  0.1251820592636344
  0.6013875528829390  0.8912069367996316  0.4586411037996442
  0.6000928699679119  0.8887842433057446  0.7922895395339731
  0.8000449096818878  0.2223771757498615  0.1258768266531512
  0.8001714982642779  0.2227761932639282  0.4591988224080972
  0.8000904482142132  0.2221019517294887  0.7925810631006299
  0.8001038614340357  0.5555836842359351  0.1253760368146364
  0.7994510912337083  0.5556196654942119  0.4588141364795177
  0.7999437722005862  0.5553715257395302  0.7918381205879587
  0.8000694739298175  0.8889506463988152  0.1254587584125296
  0.8003214956956827  0.8887863157504116  0.4588079694349595
  0.8000905344374553  0.8885800272183260  0.7922296265984736
  0.1000296829307261  0.2779018354521159  0.2927091092741163
  0.0999729840264627  0.2773834943320432  0.6259776296584010
  0.0999965199507548  0.2776652755722059  0.9594015320891746
  0.0996471926072811  0.6112286984008470  0.2919669652455795
  0.1006681242001167  0.6105355818688946  0.6249283453710943
  0.0998557869546692  0.6110564699455646  0.9581813110534666
  0.0996576188961194  0.9448158399146753  0.2920266644095462
  0.0996187739025766  0.9440840301554724  0.6257057276386639
  0.0998472432506771  0.9443838358779533  0.9589433674403838
  0.3002802030592755  0.2782165169880051  0.2930094904629231
  0.2992894578340586  0.2752540711624348  0.6265938957120237
  0.2999944483242028  0.2771580786260677  0.9604732721797183
  0.2969582436929710  0.6129323971295760  0.2876078551389225
  0.3013658748814627  0.6100217664612747  0.6227294114742367
  0.3000066871480234  0.6109437112678242  0.9581918191564877
  0.2998624243855486  0.9445328133703322  0.2920834914672550
  0.2998182998001805  0.9439329823842315  0.6254760559026132
  0.2999916382719133  0.9443025605153953  0.9588315350476817
  0.4997198089407227  0.2782165169880051  0.2930094904629231
  0.5007105541659395  0.2752540711624348  0.6265938957120237
  0.5000055336758000  0.2771580786260677  0.9604732721797183
  0.5030417683070273  0.6129323971295760  0.2876078551389225
  0.4986341371185355  0.6100217664612747  0.6227294114742367
  0.4999932948519724  0.6109437112678242  0.9581918191564877
  0.5001375576144547  0.9445328133703322  0.2920834914672550
  0.5001816821998223  0.9439329823842315  0.6254760559026132
  0.5000083737280923  0.9443025605153953  0.9588315350476817
  0.6999703370692731  0.2779018354521159  0.2927091092741163
  0.7000269829735423  0.2773834943320432  0.6259776296584010
  0.7000034700492491  0.2776652755722059  0.9594015320891746
  0.7003527443927141  0.6112286984008470  0.2919669652455795
  0.6993318277998830  0.6105355818688946  0.6249283453710943
  0.7001441800453289  0.6110564699455646  0.9581813110534666
  0.7003423481038785  0.9448158399146753  0.2920266644095462
  0.7003811780974238  0.9440840301554724  0.6257057276386639
  0.7001527607493201  0.9443838358779533  0.9589433674403838
  0.8999999759999966  0.2779909179947874  0.2924662072171579
  0.8999999759999966  0.2777653658619476  0.6258409106830016
  0.8999999759999966  0.2778200483578830  0.9591808556559475
  0.8999999759999966  0.6110518672311932  0.2921265464677408
  0.8999999759999966  0.6107074418949062  0.6253013806385157
  0.8999999759999966  0.6109797266667608  0.9585993961402285
  0.8999999759999966  0.9446451726502268  0.2922347995949646
  0.8999999759999966  0.9442186115956247  0.6256136031195739
  0.8999999759999966  0.9443852161569095  0.9589290562222340
  0.9998758026864202  0.1114215922027244  0.2924007899780940
  0.9998635851382885  0.1110271054112753  0.6258424219164731
  0.9999358677262896  0.1111125577086225  0.9591713895655195
  0.0001391022542690  0.4444624937911517  0.2924124164658360
  0.0000800804788566  0.4441778578688189  0.6255307561156074
  0.0000023636131794  0.4443839689701903  0.9589542755254076
  0.9999059909939803  0.7778732210886234  0.2919562926132273
  0.9998949846992549  0.7773331099388704  0.6253503264807153
  0.9999470395216241  0.7776779535532766  0.9587260309380281
  0.1999981021280550  0.1111772132815582  0.2924817433103803
  0.1995736065194058  0.1099731353984761  0.6258717593879178
  0.1999259383074181  0.1108797230358165  0.9594226981015503
  0.2003877878241643  0.4442209500774034  0.2924873107738232
  0.2006213149958709  0.4433933576354653  0.6261876091346775
  0.1997977281723024  0.4441719438373861  0.9594583299941217
  0.1995977279371031  0.7784481910555154  0.2915578331486556
  0.1995985279301762  0.7776315227136451  0.6259374970280632
  0.1998168588634428  0.7777675557777122  0.9579677925826363
  0.4000000059999991  0.1110554604929308  0.2926969388120826
  0.4000000059999991  0.1100465939438662  0.6260713095253655
  0.4000000059999991  0.1107740350551144  0.9594030639944001
  0.4000000059999991  0.4466254162191044  0.2945115527246539
  0.4000000059999991  0.4360568299327471  0.6358343899979514
  0.4000000059999991  0.4441325428396071  0.9589641343216412
  0.4000000059999991  0.7778086363879883  0.2918099723257729
  0.4000000059999991  0.7775143564570267  0.6245287801095539
  0.4000000059999991  0.7778785797460213  0.9574534008033529
  0.6000018948719453  0.1111772132815582  0.2924817433103803
  0.6004264494805888  0.1099731353984761  0.6258717593879178
  0.6000741336925848  0.1108797230358165  0.9594226981015503
  0.5996122241758334  0.4442209500774034  0.2924873107738232
  0.5993787570041320  0.4433933576354653  0.6261876091346775
  0.6002022978276970  0.4441719438373861  0.9594583299941217
  0.6004023580628943  0.7784481910555154  0.2915578331486556
  0.6004014990698263  0.7776315227136451  0.6259374970280632
  0.6001831671365568  0.7777675557777122  0.9579677925826363
  0.8001242093135780  0.1114215922027244  0.2924007899780940
  0.8001364268617096  0.1110271054112753  0.6258424219164731
  0.8000641442737085  0.1111125577086225  0.9591713895655195
  0.7998609207457339  0.4444624937911517  0.2924124164658360
  0.7999199285211446  0.4441778578688189  0.6255307561156074
  0.7999976483868187  0.4443839689701903  0.9589542755254076
  0.8000939620060237  0.7778732210886234  0.2919562926132273
  0.8001049673007454  0.7773331099388704  0.6253503264807153
  0.8000530314783754  0.7776779535532766  0.9587260309380281
  0.4000000059999991  0.6079220057815605  0.4311986558451070
  0.4000000059999991  0.5239999841992307  0.5093902952999458
 
  0.00000000E+00  0.00000000E+00  0.00000000E+00
  0.00000000E+00  0.00000000E+00  0.00000000E+00
  0.00000000E+00  0.00000000E+00  0.00000000E+00
  0.00000000E+00  0.00000000E+00  0.00000000E+00
  0.00000000E+00  0.00000000E+00  0.00000000E+00
  0.00000000E+00  0.00000000E+00  0.00000000E+00
  0.00000000E+00  0.00000000E+00  0.00000000E+00
  0.00000000E+00  0.00000000E+00  0.00000000E+00
  0.00000000E+00  0.00000000E+00  0.00000000E+00
  0.00000000E+00  0.00000000E+00  0.00000000E+00
  0.00000000E+00  0.00000000E+00  0.00000000E+00
  0.00000000E+00  0.00000000E+00  0.00000000E+00
  0.00000000E+00  0.00000000E+00  0.00000000E+00
  0.00000000E+00  0.00000000E+00  0.00000000E+00
  0.00000000E+00  0.00000000E+00  0.00000000E+00
  0.00000000E+00  0.00000000E+00  0.00000000E+00
  0.00000000E+00  0.00000000E+00  0.00000000E+00
  0.00000000E+00  0.00000000E+00  0.00000000E+00
  0.00000000E+00  0.00000000E+00  0.00000000E+00
  0.00000000E+00  0.00000000E+00  0.00000000E+00
  0.00000000E+00  0.00000000E+00  0.00000000E+00
  0.00000000E+00  0.00000000E+00  0.00000000E+00
  0.00000000E+00  0.00000000E+00  0.00000000E+00
  0.00000000E+00  0.00000000E+00  0.00000000E+00
  0.00000000E+00  0.00000000E+00  0.00000000E+00
  0.00000000E+00  0.00000000E+00  0.00000000E+00
  0.00000000E+00  0.00000000E+00  0.00000000E+00
  0.00000000E+00  0.00000000E+00  0.00000000E+00
  0.00000000E+00  0.00000000E+00  0.00000000E+00
  0.00000000E+00  0.00000000E+00  0.00000000E+00
  0.00000000E+00  0.00000000E+00  0.00000000E+00
  0.00000000E+00  0.00000000E+00  0.00000000E+00
  0.00000000E+00  0.00000000E+00  0.00000000E+00
  0.00000000E+00  0.00000000E+00  0.00000000E+00
  0.00000000E+00  0.00000000E+00  0.00000000E+00
  0.00000000E+00  0.00000000E+00  0.00000000E+00
  0.00000000E+00  0.00000000E+00  0.00000000E+00
  0.00000000E+00  0.00000000E+00  0.00000000E+00
  0.00000000E+00  0.00000000E+00  0.00000000E+00
  0.00000000E+00  0.00000000E+00  0.00000000E+00
  0.00000000E+00  0.00000000E+00  0.00000000E+00
  0.00000000E+00  0.00000000E+00  0.00000000E+00
  0.00000000E+00  0.00000000E+00  0.00000000E+00
  0.00000000E+00  0.00000000E+00  0.00000000E+00
  0.00000000E+00  0.00000000E+00  0.00000000E+00
  0.00000000E+00  0.00000000E+00  0.00000000E+00
  0.00000000E+00  0.00000000E+00  0.00000000E+00
  0.00000000E+00  0.00000000E+00  0.00000000E+00
  0.00000000E+00  0.00000000E+00  0.00000000E+00
  0.00000000E+00  0.00000000E+00  0.00000000E+00
  0.00000000E+00  0.00000000E+00  0.00000000E+00
  0.00000000E+00  0.00000000E+00  0.00000000E+00
  0.00000000E+00  0.00000000E+00  0.00000000E+00
  0.00000000E+00  0.00000000E+00  0.00000000E+00
  0.00000000E+00  0.00000000E+00  0.00000000E+00
  0.00000000E+00  0.00000000E+00  0.00000000E+00
  0.00000000E+00  0.00000000E+00  0.00000000E+00
  0.00000000E+00  0.00000000E+00  0.00000000E+00
  0.00000000E+00  0.00000000E+00  0.00000000E+00
  0.00000000E+00  0.00000000E+00  0.00000000E+00
  0.00000000E+00  0.00000000E+00  0.00000000E+00
  0.00000000E+00  0.00000000E+00  0.00000000E+00
  0.00000000E+00  0.00000000E+00  0.00000000E+00
  0.00000000E+00  0.00000000E+00  0.00000000E+00
  0.00000000E+00  0.00000000E+00  0.00000000E+00
  0.00000000E+00  0.00000000E+00  0.00000000E+00
  0.00000000E+00  0.00000000E+00  0.00000000E+00
  0.00000000E+00  0.00000000E+00  0.00000000E+00
  0.00000000E+00  0.00000000E+00  0.00000000E+00
  0.00000000E+00  0.00000000E+00  0.00000000E+00
  0.00000000E+00  0.00000000E+00  0.00000000E+00
  0.00000000E+00  0.00000000E+00  0.00000000E+00
  0.00000000E+00  0.00000000E+00  0.00000000E+00
  0.00000000E+00  0.00000000E+00  0.00000000E+00
  0.00000000E+00  0.00000000E+00  0.00000000E+00
  0.00000000E+00  0.00000000E+00  0.00000000E+00
  0.00000000E+00  0.00000000E+00  0.00000000E+00
  0.00000000E+00  0.00000000E+00  0.00000000E+00
  0.00000000E+00  0.00000000E+00  0.00000000E+00
  0.00000000E+00  0.00000000E+00  0.00000000E+00
  0.00000000E+00  0.00000000E+00  0.00000000E+00
  0.00000000E+00  0.00000000E+00  0.00000000E+00
  0.00000000E+00  0.00000000E+00  0.00000000E+00
  0.00000000E+00  0.00000000E+00  0.00000000E+00
  0.00000000E+00  0.00000000E+00  0.00000000E+00
  0.00000000E+00  0.00000000E+00  0.00000000E+00
  0.00000000E+00  0.00000000E+00  0.00000000E+00
  0.00000000E+00  0.00000000E+00  0.00000000E+00
  0.00000000E+00  0.00000000E+00  0.00000000E+00
  0.00000000E+00  0.00000000E+00  0.00000000E+00
  0.00000000E+00  0.00000000E+00  0.00000000E+00
  0.00000000E+00  0.00000000E+00  0.00000000E+00
  0.00000000E+00  0.00000000E+00  0.00000000E+00
  0.00000000E+00  0.00000000E+00  0.00000000E+00
  0.00000000E+00  0.00000000E+00  0.00000000E+00
  0.00000000E+00  0.00000000E+00  0.00000000E+00
  0.00000000E+00  0.00000000E+00  0.00000000E+00
  0.00000000E+00  0.00000000E+00  0.00000000E+00
  0.00000000E+00  0.00000000E+00  0.00000000E+00
  0.00000000E+00  0.00000000E+00  0.00000000E+00
  0.00000000E+00  0.00000000E+00  0.00000000E+00
  0.00000000E+00  0.00000000E+00  0.00000000E+00
  0.00000000E+00  0.00000000E+00  0.00000000E+00
  0.00000000E+00  0.00000000E+00  0.00000000E+00
  0.00000000E+00  0.00000000E+00  0.00000000E+00
  0.00000000E+00  0.00000000E+00  0.00000000E+00
  0.00000000E+00  0.00000000E+00  0.00000000E+00
  0.00000000E+00  0.00000000E+00  0.00000000E+00
  0.00000000E+00  0.00000000E+00  0.00000000E+00
  0.00000000E+00  0.00000000E+00  0.00000000E+00
  0.00000000E+00  0.00000000E+00  0.00000000E+00
  0.00000000E+00  0.00000000E+00  0.00000000E+00
  0.00000000E+00  0.00000000E+00  0.00000000E+00
  0.00000000E+00  0.00000000E+00  0.00000000E+00
  0.00000000E+00  0.00000000E+00  0.00000000E+00
  0.00000000E+00  0.00000000E+00  0.00000000E+00
  0.00000000E+00  0.00000000E+00  0.00000000E+00
  0.00000000E+00  0.00000000E+00  0.00000000E+00
  0.00000000E+00  0.00000000E+00  0.00000000E+00
  0.00000000E+00  0.00000000E+00  0.00000000E+00
  0.00000000E+00  0.00000000E+00  0.00000000E+00
  0.00000000E+00  0.00000000E+00  0.00000000E+00
  0.00000000E+00  0.00000000E+00  0.00000000E+00
  0.00000000E+00  0.00000000E+00  0.00000000E+00
  0.00000000E+00  0.00000000E+00  0.00000000E+00
  0.00000000E+00  0.00000000E+00  0.00000000E+00
  0.00000000E+00  0.00000000E+00  0.00000000E+00
  0.00000000E+00  0.00000000E+00  0.00000000E+00
  0.00000000E+00  0.00000000E+00  0.00000000E+00
  0.00000000E+00  0.00000000E+00  0.00000000E+00
  0.00000000E+00  0.00000000E+00  0.00000000E+00
  0.00000000E+00  0.00000000E+00  0.00000000E+00
  0.00000000E+00  0.00000000E+00  0.00000000E+00
  0.00000000E+00  0.00000000E+00  0.00000000E+00
  0.00000000E+00  0.00000000E+00  0.00000000E+00
  0.00000000E+00  0.00000000E+00  0.00000000E+00
  0.00000000E+00  0.00000000E+00  0.00000000E+00
  0.00000000E+00  0.00000000E+00  0.00000000E+00
  0.00000000E+00  0.00000000E+00  0.00000000E+00
  0.00000000E+00  0.00000000E+00  0.00000000E+00
  0.00000000E+00  0.00000000E+00  0.00000000E+00
  0.00000000E+00  0.00000000E+00  0.00000000E+00
  0.00000000E+00  0.00000000E+00  0.00000000E+00
  0.00000000E+00  0.00000000E+00  0.00000000E+00
  0.00000000E+00  0.00000000E+00  0.00000000E+00
  0.00000000E+00  0.00000000E+00  0.00000000E+00
  0.00000000E+00  0.00000000E+00  0.00000000E+00
  0.00000000E+00  0.00000000E+00  0.00000000E+00
  0.00000000E+00  0.00000000E+00  0.00000000E+00
  0.00000000E+00  0.00000000E+00  0.00000000E+00
  0.00000000E+00  0.00000000E+00  0.00000000E+00
  0.00000000E+00  0.00000000E+00  0.00000000E+00
  0.00000000E+00  0.00000000E+00  0.00000000E+00
  0.00000000E+00  0.00000000E+00  0.00000000E+00
  0.00000000E+00  0.00000000E+00  0.00000000E+00
  0.00000000E+00  0.00000000E+00  0.00000000E+00