GaN                                     
    1.000000000000000     
    15.8909244537000003    0.0000000000000000    0.0000000000000000
     0.0000000000000000   16.5143318175999987    0.0000000000000000
     0.0000000000000000    0.0000000000000000   15.4982528686999999
   Ga   N 
   179   181
Direct
  0.1000233640627620  0.0556190578876250  0.3330208219395007
  0.0999928120082602  0.0556274425647942  0.6662719339459676
  0.0999919030092263  0.0556307990815370  0.9996517924774333
  0.1000258725744189  0.3887089817047716  0.3329403306826312
  0.0999552230546064  0.3887422448057472  0.6663767355066045
  0.0999691949426869  0.3887527740677419  0.9995185858601791
  0.0999336211393373  0.7222527511435960  0.3330029812421360
  0.0999054710605795  0.7223462334446398  0.6664738412256205
  0.0999607220218787  0.7223046521782096  0.9997049651892527
  0.3001953573890532  0.0556829243916302  0.3330616506244299
  0.3001267113936986  0.0558049662357664  0.6662282834883795
  0.3000105867820194  0.0556603876976575  0.9996160751004686
  0.3001325740706606  0.3887556814289838  0.3331710340890042
  0.2998798461393534  0.3888138148868830  0.6662292318321327
  0.2998320490390811  0.3886977628110450  0.9993192961937767
  0.2997372583067811  0.7221682851683450  0.3331634330146166
  0.2998096780507252  0.7223533949143117  0.6666543147527947
  0.2998167132298696  0.7223196863214960  0.9999411913696921
  0.5000718748330832  0.0557338856242174  0.3330029933429509
  0.5000752411974427  0.0559701196250592  0.6661414194743016
  0.4999819990969696  0.0557194467056864  0.9995184200810444
  0.4994085544266398  0.3881917270736681  0.3335720527954398
  0.5010809403652967  0.3901945918687818  0.6637452579089129
  0.4999336373944225  0.3886962200767698  0.9984817658467557
  0.5001149544642579  0.7219738701442349  0.3329707674624262
  0.4997846282300132  0.7229702384103569  0.6676262224692415
  0.4998285998763308  0.7223474023215246  0.0003155956560983
  0.6999566093839168  0.0556685361663338  0.3329760562515849
  0.6998837786077224  0.0559087596205906  0.6661178630126805
  0.6999957681251651  0.0556974530161030  0.9994800414400310
  0.7007566369115998  0.3880502573118422  0.3334737928186194
  0.6987773938043162  0.3901367789399604  0.6635776874781208
  0.7000286050850926  0.3886603145481059  0.9984142395281232
  0.6997145543351299  0.7219186578046293  0.3329390019320111
  0.6999693175746141  0.7229043009296601  0.6675847176333483
  0.7000645017613624  0.7223238513539900  0.0002873747223037
  0.8998531657395404  0.0555549920138988  0.3330148776310753
  0.8998627667447338  0.0556880458874434  0.6661947259851886
  0.8999764917468546  0.0556140512965840  0.9995642494461151
  0.8999312157784055  0.3886570257291806  0.3330748228857479
  0.9000214056595512  0.3887213801583676  0.6660944398684965
  0.9001162461641864  0.3886653577124523  0.9991884856328047
  0.9001158541736415  0.7220710886678918  0.3331245227008112
  0.8999822547928146  0.7222536427634701  0.6666142115074241
  0.9000870321081490  0.7222677442114911  0.9998940714812824
 -0.0000893055786124  0.2221451085139980  0.3329727177879921
 -0.0001052068083390  0.2221868997228682  0.6659827366718933
 -0.0000329532605259  0.2221653215277355  0.9995166059273461
  0.0001728342866341  0.5552359650459769  0.3327821503267767
  0.0000548214833814  0.5554414639664521  0.6664708094947430
  0.0000496059700652  0.5554550634345284  0.9996096515889481
 -0.0000339787680573  0.8889531527029492  0.3330425684617249
 -0.0000711222156357  0.8890014981468383  0.6664186150280363
  0.0000276626321998  0.8889888577788927  0.9997282358599432
  0.2002152798617186  0.2222156664678075  0.3330296633464498
  0.2001157531034833  0.2222446164373839  0.6660426352948063
  0.2000112591977162  0.2221919523954476  0.9995851309881075
  0.1997419182788117  0.5552898024937836  0.3328348391386842
  0.1997466728252438  0.5554947769844192  0.6665262975023466
  0.1998309820628056  0.5554760397824460  0.9996731940718083
  0.1999688020537237  0.8890209150426430  0.3330473015722775
  0.1999737671535187  0.8890723987548959  0.6664291345572333
  0.1999494588994680  0.8890335875914631  0.9997395373448174
  0.4005100065789070  0.2224590491619265  0.3334107780202413
  0.4004441448190656  0.2227944901912917  0.6655992546192454
  0.3999700810004929  0.2222069507187738  0.9991874048537429
  0.3990561936603985  0.5544953953831857  0.3325727329497658
  0.3993271263427627  0.5549000096346436  0.6673727598304956
  0.3996350845986924  0.5554493870705913  0.9997287599203127
  0.4000460705383757  0.8889002725805550  0.3329946380042130
  0.3999305354059490  0.8892220541270892  0.6665415045737142
  0.3999209629290464  0.8890681512138366  0.9999033710925208
  0.6000737260425529  0.2224227632275333  0.3326231392950961
  0.5999981073079024  0.2230054091322700  0.6656138566047055
  0.5999963721669587  0.2222165333358697  0.9987930792390657
  0.5999547252361852  0.5521368049247737  0.3247545379337655
  0.5998666008744926  0.5557924570429917  0.6684500040099920
  0.5999382584806243  0.5551812067121578  0.9994589845519647
  0.5999526335604617  0.8889373244630249  0.3331796592022550
  0.5999310913452536  0.8893065069051787  0.6667898113970177
  0.5999644582577086  0.8891000040408171  0.9999139251440290
  0.7996307633126033  0.2223234072324513  0.3333162663175291
  0.7995777997355822  0.2226841978571397  0.6655134694859335
  0.8000164315028915  0.2221610663465399  0.9990751789888780
  0.8008585532249139  0.5543902121771174  0.3324778559901341
  0.8004485853967044  0.5548028416922378  0.6672682745654905
  0.8002464160425992  0.5553971841947605  0.9996241664640594
  0.7998624679286637  0.8887878170842880  0.3329806275483555
  0.7999349884922884  0.8891122109468638  0.6665171876887762
  0.8000304382772652  0.8890289761880898  0.9998805640052953
  0.1000124548194176  0.2777112809158648  0.1662869101584225
  0.1000472284670653  0.2776021396710890  0.4994604612760815
  0.0999671052939893  0.2777168187636199  0.8328337917000412
  0.0999462208154801  0.6111618337470947  0.1662507777040492
  0.0999097911350833  0.6112890635636995  0.4997336363237691
  0.0999043083048320  0.6112390161120620  0.8331055064937644
  0.0999755150323752  0.9446223941837389  0.1663545763715613
  0.0999598985412709  0.9445573410721380  0.4996858134109277
  0.0999702460815436  0.9446338109901354  0.8330341146903146
  0.3000740266129628  0.2777176393220127  0.1663005531134626
  0.3005517756203290  0.2779187039305783  0.4992009322384584
  0.3000184947557694  0.2777771494024452  0.8325835351410631
  0.2996696548082059  0.6111335657488866  0.1663701776361565
  0.2986927231476761  0.6111258834076350  0.5000196861822456
  0.2997395273215352  0.6112973999106392  0.8332960010023692
  0.2999424824834173  0.9446388664912344  0.1664013767067196
  0.3001305394592050  0.9444981314090645  0.4996938721573191
  0.2999263337299729  0.9447009551082343  0.8330869980213056
  0.4999721473274584  0.2774361092337402  0.1656222691143369
  0.5014329908074973  0.2807414841893759  0.4990310286148071
  0.4999268044896223  0.2781361333514682  0.8319905726157498
  0.4996621222768334  0.6108134268607771  0.1658089421627547
  0.4933318393819990  0.6123096311410675  0.5033761938752567
  0.4996721125274142  0.6115273083645262  0.8341901736336360
  0.4999678295146839  0.9447007808093060  0.1664472057720242
  0.5001763926999608  0.9446753773845306  0.4998228567188703
  0.4999256793274560  0.9447381916953577  0.8331563578224164
  0.7001029015548298  0.2773747473095153  0.1655435312014661
  0.6988326320827973  0.2805094258968515  0.4989480678742649
  0.7000223958046712  0.2781062292937059  0.8319000124000164
  0.7002525675161430  0.6107811892971312  0.1657520709483187
  0.7064599687501856  0.6121569337239754  0.5033197041909082
  0.7001371527211727  0.6114932573658464  0.8341438005908588
  0.6999808347588105  0.9446606091873225  0.1664320344004339
  0.6997602591253049  0.9445971240714002  0.4998096419797692
  0.6999998089342205  0.9447044515945353  0.8331391106641768
  0.8999755767345867  0.2776489001104686  0.1661979182170003
  0.8995656607672505  0.2778004146438919  0.4990867976180071
  0.8999238110751343  0.2777291249548490  0.8324725667393698
  0.9002349163522915  0.6110781767044471  0.1663007461831168
  0.9011009236561852  0.6110026932145789  0.4999497107573882
  0.9000664657992276  0.6112348357493761  0.8332169536852539
  0.9000186583070084  0.9445612461618036  0.1663836397357424
  0.8998065785626170  0.9443293933555942  0.4996840593754009
  0.9000210578495010  0.9446291736236051  0.8330634667821065
 -0.0000228278762137  0.1111422677148240  0.1662969346769627
 -0.0001431860079627  0.1110202160804380  0.4995119116166984
 -0.0000312041331848  0.1111961822286702  0.8328517484667179
  0.0000227434214589  0.4442668411190470  0.1661851619699888
  0.0005180866708911  0.4441622017010062  0.4997914562080187
 -0.0000341357418273  0.4444155184801101  0.8328780699556849
  0.0000272339743429  0.7779350848892952  0.1663959212366080
 -0.0000228760720795  0.7779277520574993  0.4997958322928372
 -0.0000227574026522  0.7779614820561129  0.8331311415370722
  0.2000195455957443  0.1111896615101751  0.1663455458238613
  0.2001957682673729  0.1111020751378581  0.4995476026254993
  0.1999924201788020  0.1112333765965451  0.8328916835861976
  0.1999689402692701  0.4442952510109757  0.1662495059089275
  0.1995080786619636  0.4442247536478243  0.4998567967999925
  0.1999029139877181  0.4444436859764949  0.8329592822502878
  0.1998619437160834  0.7779825591429994  0.1664065009471176
  0.1998391943653035  0.7780133219157628  0.4998062268868299
  0.1998843661124256  0.7780145531660665  0.8331510098730497
  0.3999938107134218  0.1112772294101827  0.1663400206055244
  0.4003443267760695  0.1115575833410204  0.4995760776601271
  0.4000057402498701  0.1113671216180284  0.8326262107624079
  0.3997698011134391  0.4440896695665196  0.1656252970456362
  0.3998232980237636  0.4434781306021237  0.4998057871688753
  0.4000352411451366  0.4442254026144084  0.8326915856449119
  0.3997597451630557  0.7779231651646237  0.1666322176929516
  0.3996838474594063  0.7778552386355810  0.4999949016453262
  0.3997037931711723  0.7781433967516632  0.8335507315460827
  0.6000127577560371  0.1113022265653028  0.1661279551493068
  0.6000320704560645  0.1120123263576875  0.4993975633343593
  0.5999831218663564  0.1114194792412886  0.8325523778740113
  0.6000294371400900  0.4428526156917235  0.1644666498542296
  0.5999481667045852  0.4444708809065803  0.8311736033939120
  0.5999456541970959  0.7779578865989624  0.1666446455518431
  0.5999030908485735  0.7776585905826201  0.5008205827066707
  0.5999275420323942  0.7780430135699437  0.8337649412115251
  0.8000290839424533  0.1111936683233165  0.1662676431124459
  0.7997644565144949  0.1113508402283501  0.4995285354481601
  0.7999613116512586  0.1113011827725396  0.8325676050676108
  0.8002532894799131  0.4440277150359539  0.1655199357667465
  0.8002070544047539  0.4432981561764738  0.4996679292146842
  0.7998261317295808  0.4441622218721261  0.8325406489529458
  0.8001379246290955  0.7778682625744680  0.1666113309955388
  0.8001088767278955  0.7777060364432722  0.4999645299871412
  0.8001542362450690  0.7780827583270673  0.8335064489623303
  0.1000127063604738  0.0555914316999617  0.1252951005930323
  0.1000459216843943  0.0554653167254023  0.4586383545095239
  0.0999899819776190  0.0555911483754815  0.7919380572571556
  0.1000080608940500  0.3888234925008290  0.1251434374310013
  0.1000469415063068  0.3887327861878924  0.4585072958735665
  0.0999522097829111  0.3888966932299224  0.7920051497481847
  0.0999538864579786  0.7223373843581845  0.1253953575389155
  0.0999260158563519  0.7223710472455348  0.4586863860486685
  0.0999405544484438  0.7223844407834050  0.7920904049482654
  0.3000026407728509  0.0555663866009342  0.1252826947694555
  0.3003021477777060  0.0553505813059674  0.4586746757561744
  0.2999554923668705  0.0555934062594705  0.7919034511074060
  0.2997480578097126  0.3887433085894026  0.1248563986609798
  0.2984881364391531  0.3891391133316901  0.4585883139447164
  0.2997378739341524  0.3890081762970872  0.7919144248858275
  0.2999171506475697  0.7223251233608047  0.1256323534374832
  0.3000377923876973  0.7221736189376053  0.4588728819668330
  0.2999392579860580  0.7224436395275526  0.7922082913532784
  0.4999727346372526  0.0555672946671087  0.1251960242898927
  0.5002413381944686  0.0553782674512174  0.4586314182648902
  0.4999887384944049  0.0555699215351608  0.7918212113123807
  0.4996332830126400  0.3885671055648101  0.1241754922119179
  0.4935184045189437  0.3879060512096644  0.4551756964059935
  0.4994864934235699  0.3890324184019145  0.7913053834805653
  0.4999333094411108  0.7221212718640603  0.1262463491824087
  0.5009820161781976  0.7203699827033875  0.4589054408699519
  0.4997903185824194  0.7225890655552735  0.7927809654346847
  0.7000185674589426  0.0555275992807706  0.1251594927576449
  0.6997866457255485  0.0552892178598350  0.4586087898979663
  0.6999550713377997  0.0555342913575383  0.7917995982308272
  0.7003785272391084  0.3885151511339790  0.1240968756596582
  0.7068123316437331  0.3874846971427258  0.4549788786317530
  0.7003578639705110  0.3889943021615159  0.7911701665207008
  0.6999511918985957  0.7221003508263826  0.1262284603384038
  0.6987757551533866  0.7202519912291243  0.4588853213394721
  0.7000405572686466  0.7225603767987276  0.7927443878289577
  0.9000127485829303  0.0554829675370178  0.1252290728660758
  0.8997969913590156  0.0551598827257602  0.4586345467060116
  0.9000221139515361  0.0555221576775997  0.7918688834161264
  0.9002707348017431  0.3886825420458861  0.1247355193766115
  0.9016240812781557  0.3890234758649508  0.4584892458332452
  0.9001458898819461  0.3889616162791681  0.7917965969207007
  0.8999833614807748  0.7222775663023601  0.1255866275546567
  0.8997779871251340  0.7220673789741202  0.4588339615438945
  0.8999164600539989  0.7223853062888883  0.7921675800524323
  0.0000464037281386  0.2221476681949220  0.1251634038592219
 -0.0000009722761837  0.2219936080607786  0.4585607072513691
  0.0000338761890847  0.2221799137550234  0.7917123170254816
  0.0000234249809775  0.5555456356605178  0.1252637341838625
  0.0002559801601473  0.5555204424590872  0.4585077136474268
 -0.0000613147724709  0.5557177684811093  0.7920533726926886
 -0.0000030260576316  0.8889475451989555  0.1253974429040504
 -0.0001139406473894  0.8888257452539530  0.4586913231344196
 -0.0000201474149792  0.8889729680218431  0.7920489340744130
  0.2000147478888247  0.2221969926057007  0.1252301311636219
  0.2001637644738358  0.2220821778589669  0.4586138100449040
  0.1999345841073557  0.2222214612591976  0.7917640373977083
  0.1998950567905566  0.5555714009194826  0.1253260294457946
  0.1996054278383721  0.5555738616208509  0.4585571038429091
  0.1998852728719348  0.5557401779804652  0.7921096467159491
  0.1999771587659495  0.8889990995003074  0.1254032891605335
  0.2000714689345485  0.8889207462774213  0.4586979894222721
  0.1999771349396806  0.8890241890951016  0.7920605865291395
  0.3998066529617700  0.2221079050322534  0.1247703778165555
  0.4005428123112924  0.2221439171127311  0.4588387456801150
  0.3998894667027321  0.2222542264929602  0.7914497820653611
  0.3997634161148765  0.5556690163982101  0.1254977589578223
  0.3991145017861411  0.5553053109483314  0.4583357366493453
  0.3999280527856816  0.5559363444824766  0.7925925182665141
  0.4000057976093184  0.8888744645679636  0.1256265928220781
  0.4004211322479199  0.8884101028664708  0.4587147931887408
  0.3999408540264502  0.8890173688647396  0.7921374385506621
  0.6000089784216720  0.2220868178991049  0.1243346669474890
  0.6000581729662775  0.2225530357367200  0.4580539510245671
  0.5999600479486211  0.2222995143354813  0.7914528159571397
  0.5999469367512829  0.5551808948102638  0.1258794978157156
  0.5997773577164589  0.5404241759159516  0.4647344636310051
  0.5998895655471479  0.5572272759314165  0.7939174344502726
  0.5999615516867817  0.8888370601682503  0.1256331666221484
  0.5999490540929141  0.8880382101517402  0.4589027807612954
  0.5999502511118352  0.8889298782273586  0.7923382660509380
  0.8002428499475721  0.2220236888508497  0.1246587374280146
  0.7996781812314224  0.2218801240384349  0.4587379870930874
  0.8000526818468211  0.2221874692777159  0.7913700965334337
  0.8001446258109021  0.5556203681837691  0.1254020132547132
  0.8006904088660847  0.5551606711691452  0.4582543755241068
  0.7998728793444878  0.5558882583345881  0.7925011192277064
  0.7999399807695889  0.8888231286625007  0.1256054687594717
  0.7994845483821948  0.8882743728174775  0.4587008990055146
  0.7999789107298230  0.8889625732817894  0.7921148421420107
  0.1000519718718844  0.2776146418094911  0.2919121805327494
  0.1000022023647041  0.2777306253545562  0.6251759049091411
  0.0999856908393597  0.2776787127423962  0.9585216283637862
  0.0999515381889099  0.6112343196104093  0.2919276477402241
  0.0998955006824074  0.6113201870926941  0.6253464972821074
  0.0999375832572911  0.6112365308858372  0.9587286493579777
  0.0999537380070121  0.9443937960134505  0.2920091838508002
  0.0999355779388229  0.9443870273391045  0.6253267762851944
  0.0999806773081052  0.9444756072143080  0.9586798864391548
  0.3001916360608587  0.2777078697393799  0.2918820188713392
  0.2999415333409887  0.2778745364257668  0.6250421819159546
  0.2998944643707225  0.2776853940728619  0.9582746415085838
  0.2998973900516662  0.6112161600340176  0.2921104703361763
  0.2999654271462460  0.6112866094604059  0.6255329597598988
  0.2997949435284145  0.6112953475828287  0.9589006596411064
  0.3001008658091053  0.9443173815031347  0.2920919338065867
  0.3000253909959251  0.9444651907131256  0.6253109639130409
  0.2999718086750343  0.9444521836674626  0.9587435412229178
  0.5001558655635636  0.2773370988608407  0.2907081514765632
  0.5001286615589798  0.2783979889419668  0.6248484911399347
  0.4998935628983267  0.2775895448740247  0.9578703717597756
  0.5002993770267480  0.6102242765144309  0.2935166200716517
  0.4998797413490287  0.6115892448090274  0.6263183082374953
  0.4997637528901870  0.6113043333765180  0.9597154010543623
  0.5000441078935589  0.9442711979064999  0.2921415722877593
  0.5000051809680728  0.9444837488940530  0.6254212397539555
  0.4999494051464134  0.9444148895360748  0.9588188416194267
  0.6999951647933382  0.2772175462745968  0.2905882649582440
  0.6998985227896378  0.2783074356731212  0.6247735932416735
  0.7000893594862893  0.2775618120850739  0.9577914549177864
  0.6996274695060306  0.6101815441992888  0.2934704490096920
  0.6998799421181240  0.6115175386283839  0.6262579088603256
  0.7001119496969659  0.6112819987761584  0.9596733944368614
  0.6998956535859409  0.9442055721568947  0.2921279661821989
  0.6998903401702838  0.9444177698596065  0.6254078194403935
  0.6999990995353026  0.9443855666514298  0.9588035543330700
  0.8999276957425935  0.2776081920690212  0.2917806497607139
  0.9000634355175443  0.2777755382379316  0.6249409792638213
  0.9000858967546406  0.2776447339836181  0.9581681200882035
  0.9000071059421675  0.6111356027706351  0.2920382416381693
  0.8998162867383888  0.6111964196024944  0.6254653717071601
  0.9000843007390272  0.6112524633453962  0.9588176352514527
  0.8998226025587166  0.9441911695457684  0.2920724362570788
  0.8998582708832511  0.9443420955505888  0.6252979923035111
  0.8999940500588344  0.9443995905305609  0.9587222673235717
 -0.0000479992298191  0.1109189859317763  0.2919300836602910
 -0.0000326313191670  0.1109498679953066  0.6251887316891124
 -0.0000002180576730  0.1110319822653264  0.9585350565269232
  0.0000772626824055  0.4443566814688538  0.2917389379013935
  0.0001652685290501  0.4445745735808295  0.6254377538293794
  0.0000745177428724  0.4444961538542803  0.9585030148444560
 -0.0001371145904004  0.7777761201439110  0.2920905452706341
 -0.0001752224585280  0.7778152453904525  0.6253972880124858
 -0.0000490295934156  0.7778562761704841  0.9587715602319371
  0.2000748318763351  0.1109917115330098  0.2919739379013241
  0.2000006203094030  0.1110194085378266  0.6252222575884741
  0.1999750694684290  0.1110621869962627  0.9585811537567958
  0.1999675956608573  0.4444050443839405  0.2918045947148865
  0.1997413203658278  0.4446220936045854  0.6255019543212320
  0.1998710038693265  0.4445099079048522  0.9585824573324265
  0.1999850784792615  0.7778370125431432  0.2921061342706521
  0.1999605548926650  0.7778823490870747  0.6254130317463440
  0.1999541177668725  0.7779009976547459  0.9587947100275216
  0.4000637064286868  0.1111015292163752  0.2919277859467111
  0.4000454943193893  0.1112376035117689  0.6252693653747671
  0.3999507046061674  0.1110207046415929  0.9583494924770588
  0.3996164517255165  0.4445399158594034  0.2906411442433782
  0.3992538181094628  0.4448689897026101  0.6253275395721185
  0.3997050045335661  0.4445940944002265  0.9584927019435456
  0.4002145233539082  0.7773357700720761  0.2925102936630201
  0.4000356620861746  0.7778467864560686  0.6254484316628789
  0.3999338562698643  0.7778446733680336  0.9591780926477529
  0.6000257370366755  0.1109191864491854  0.2917197897666452
  0.5999934919742377  0.1113939518272222  0.6251114174896724
  0.5999899213140619  0.1109447716961148  0.9582363198422301
  0.6000831863794698  0.4422833092694031  0.2902753611353825
  0.5999064407347909  0.4475546063123551  0.6316397352299827
  0.5999795035769884  0.4445003941538918  0.9578152668911746
  0.5999278757215935  0.7774215716958770  0.2925188184676261
  0.5998892413260820  0.7777939033042550  0.6260095572441270
  0.5999483334310770  0.7777426948168877  0.9594169895038986
  0.7999933782074126  0.1109619707430869  0.2918487812393116
  0.7999488586990293  0.1111069688260099  0.6252232217783507
  0.8000372927837659  0.1109666711654729  0.9582880076576157
  0.8004784205473697  0.4444581940890557  0.2904980905478356
  0.8006339291973615  0.4447716056807103  0.6251987945568531
  0.8002295410637502  0.4445486887326500  0.9583568315767889
  0.7996386072252984  0.7772383267187838  0.2924915019528608
  0.7997472007050253  0.7777358261901139  0.6254163977000082
  0.7999729962607828  0.7778040331454992  0.9591364941720109
  0.5999465954782617  0.4684250739386397  0.4915858986913482
 
  0.00000000E+00  0.00000000E+00  0.00000000E+00
  0.00000000E+00  0.00000000E+00  0.00000000E+00
  0.00000000E+00  0.00000000E+00  0.00000000E+00
  0.00000000E+00  0.00000000E+00  0.00000000E+00
  0.00000000E+00  0.00000000E+00  0.00000000E+00
  0.00000000E+00  0.00000000E+00  0.00000000E+00
  0.00000000E+00  0.00000000E+00  0.00000000E+00
  0.00000000E+00  0.00000000E+00  0.00000000E+00
  0.00000000E+00  0.00000000E+00  0.00000000E+00
  0.00000000E+00  0.00000000E+00  0.00000000E+00
  0.00000000E+00  0.00000000E+00  0.00000000E+00
  0.00000000E+00  0.00000000E+00  0.00000000E+00
  0.00000000E+00  0.00000000E+00  0.00000000E+00
  0.00000000E+00  0.00000000E+00  0.00000000E+00
  0.00000000E+00  0.00000000E+00  0.00000000E+00
  0.00000000E+00  0.00000000E+00  0.00000000E+00
  0.00000000E+00  0.00000000E+00  0.00000000E+00
  0.00000000E+00  0.00000000E+00  0.00000000E+00
  0.00000000E+00  0.00000000E+00  0.00000000E+00
  0.00000000E+00  0.00000000E+00  0.00000000E+00
  0.00000000E+00  0.00000000E+00  0.00000000E+00
  0.00000000E+00  0.00000000E+00  0.00000000E+00
  0.00000000E+00  0.00000000E+00  0.00000000E+00
  0.00000000E+00  0.00000000E+00  0.00000000E+00
  0.00000000E+00  0.00000000E+00  0.00000000E+00
  0.00000000E+00  0.00000000E+00  0.00000000E+00
  0.00000000E+00  0.00000000E+00  0.00000000E+00
  0.00000000E+00  0.00000000E+00  0.00000000E+00
  0.00000000E+00  0.00000000E+00  0.00000000E+00
  0.00000000E+00  0.00000000E+00  0.00000000E+00
  0.00000000E+00  0.00000000E+00  0.00000000E+00
  0.00000000E+00  0.00000000E+00  0.00000000E+00
  0.00000000E+00  0.00000000E+00  0.00000000E+00
  0.00000000E+00  0.00000000E+00  0.00000000E+00
  0.00000000E+00  0.00000000E+00  0.00000000E+00
  0.00000000E+00  0.00000000E+00  0.00000000E+00
  0.00000000E+00  0.00000000E+00  0.00000000E+00
  0.00000000E+00  0.00000000E+00  0.00000000E+00
  0.00000000E+00  0.00000000E+00  0.00000000E+00
  0.00000000E+00  0.00000000E+00  0.00000000E+00
  0.00000000E+00  0.00000000E+00  0.00000000E+00
  0.00000000E+00  0.00000000E+00  0.00000000E+00
  0.00000000E+00  0.00000000E+00  0.00000000E+00
  0.00000000E+00  0.00000000E+00  0.00000000E+00
  0.00000000E+00  0.00000000E+00  0.00000000E+00
  0.00000000E+00  0.00000000E+00  0.00000000E+00
  0.00000000E+00  0.00000000E+00  0.00000000E+00
  0.00000000E+00  0.00000000E+00  0.00000000E+00
  0.00000000E+00  0.00000000E+00  0.00000000E+00
  0.00000000E+00  0.00000000E+00  0.00000000E+00
  0.00000000E+00  0.00000000E+00  0.00000000E+00
  0.00000000E+00  0.00000000E+00  0.00000000E+00
  0.00000000E+00  0.00000000E+00  0.00000000E+00
  0.00000000E+00  0.00000000E+00  0.00000000E+00
  0.00000000E+00  0.00000000E+00  0.00000000E+00
  0.00000000E+00  0.00000000E+00  0.00000000E+00
  0.00000000E+00  0.00000000E+00  0.00000000E+00
  0.00000000E+00  0.00000000E+00  0.00000000E+00
  0.00000000E+00  0.00000000E+00  0.00000000E+00
  0.00000000E+00  0.00000000E+00  0.00000000E+00
  0.00000000E+00  0.00000000E+00  0.00000000E+00
  0.00000000E+00  0.00000000E+00  0.00000000E+00
  0.00000000E+00  0.00000000E+00  0.00000000E+00
  0.00000000E+00  0.00000000E+00  0.00000000E+00
  0.00000000E+00  0.00000000E+00  0.00000000E+00
  0.00000000E+00  0.00000000E+00  0.00000000E+00
  0.00000000E+00  0.00000000E+00  0.00000000E+00
  0.00000000E+00  0.00000000E+00  0.00000000E+00
  0.00000000E+00  0.00000000E+00  0.00000000E+00
  0.00000000E+00  0.00000000E+00  0.00000000E+00
  0.00000000E+00  0.00000000E+00  0.00000000E+00
  0.00000000E+00  0.00000000E+00  0.00000000E+00
  0.00000000E+00  0.00000000E+00  0.00000000E+00
  0.00000000E+00  0.00000000E+00  0.00000000E+00
  0.00000000E+00  0.00000000E+00  0.00000000E+00
  0.00000000E+00  0.00000000E+00  0.00000000E+00
  0.00000000E+00  0.00000000E+00  0.00000000E+00
  0.00000000E+00  0.00000000E+00  0.00000000E+00
  0.00000000E+00  0.00000000E+00  0.00000000E+00
  0.00000000E+00  0.00000000E+00  0.00000000E+00
  0.00000000E+00  0.00000000E+00  0.00000000E+00
  0.00000000E+00  0.00000000E+00  0.00000000E+00
  0.00000000E+00  0.00000000E+00  0.00000000E+00
  0.00000000E+00  0.00000000E+00  0.00000000E+00
  0.00000000E+00  0.00000000E+00  0.00000000E+00
  0.00000000E+00  0.00000000E+00  0.00000000E+00
  0.00000000E+00  0.00000000E+00  0.00000000E+00
  0.00000000E+00  0.00000000E+00  0.00000000E+00
  0.00000000E+00  0.00000000E+00  0.00000000E+00
  0.00000000E+00  0.00000000E+00  0.00000000E+00
  0.00000000E+00  0.00000000E+00  0.00000000E+00
  0.00000000E+00  0.00000000E+00  0.00000000E+00
  0.00000000E+00  0.00000000E+00  0.00000000E+00
  0.00000000E+00  0.00000000E+00  0.00000000E+00
  0.00000000E+00  0.00000000E+00  0.00000000E+00
  0.00000000E+00  0.00000000E+00  0.00000000E+00
  0.00000000E+00  0.00000000E+00  0.00000000E+00
  0.00000000E+00  0.00000000E+00  0.00000000E+00
  0.00000000E+00  0.00000000E+00  0.00000000E+00
  0.00000000E+00  0.00000000E+00  0.00000000E+00
  0.00000000E+00  0.00000000E+00  0.00000000E+00
  0.00000000E+00  0.00000000E+00  0.00000000E+00
  0.00000000E+00  0.00000000E+00  0.00000000E+00
  0.00000000E+00  0.00000000E+00  0.00000000E+00
  0.00000000E+00  0.00000000E+00  0.00000000E+00
  0.00000000E+00  0.00000000E+00  0.00000000E+00
  0.00000000E+00  0.00000000E+00  0.00000000E+00
  0.00000000E+00  0.00000000E+00  0.00000000E+00
  0.00000000E+00  0.00000000E+00  0.00000000E+00
  0.00000000E+00  0.00000000E+00  0.00000000E+00
  0.00000000E+00  0.00000000E+00  0.00000000E+00
  0.00000000E+00  0.00000000E+00  0.00000000E+00
  0.00000000E+00  0.00000000E+00  0.00000000E+00
  0.00000000E+00  0.00000000E+00  0.00000000E+00
  0.00000000E+00  0.00000000E+00  0.00000000E+00
  0.00000000E+00  0.00000000E+00  0.00000000E+00
  0.00000000E+00  0.00000000E+00  0.00000000E+00
  0.00000000E+00  0.00000000E+00  0.00000000E+00
  0.00000000E+00  0.00000000E+00  0.00000000E+00
  0.00000000E+00  0.00000000E+00  0.00000000E+00
  0.00000000E+00  0.00000000E+00  0.00000000E+00
  0.00000000E+00  0.00000000E+00  0.00000000E+00
  0.00000000E+00  0.00000000E+00  0.00000000E+00
  0.00000000E+00  0.00000000E+00  0.00000000E+00
  0.00000000E+00  0.00000000E+00  0.00000000E+00
  0.00000000E+00  0.00000000E+00  0.00000000E+00
  0.00000000E+00  0.00000000E+00  0.00000000E+00
  0.00000000E+00  0.00000000E+00  0.00000000E+00
  0.00000000E+00  0.00000000E+00  0.00000000E+00
  0.00000000E+00  0.00000000E+00  0.00000000E+00
  0.00000000E+00  0.00000000E+00  0.00000000E+00
  0.00000000E+00  0.00000000E+00  0.00000000E+00
  0.00000000E+00  0.00000000E+00  0.00000000E+00
  0.00000000E+00  0.00000000E+00  0.00000000E+00
  0.00000000E+00  0.00000000E+00  0.00000000E+00
  0.00000000E+00  0.00000000E+00  0.00000000E+00
  0.00000000E+00  0.00000000E+00  0.00000000E+00
  0.00000000E+00  0.00000000E+00  0.00000000E+00
  0.00000000E+00  0.00000000E+00  0.00000000E+00
  0.00000000E+00  0.00000000E+00  0.00000000E+00
  0.00000000E+00  0.00000000E+00  0.00000000E+00
  0.00000000E+00  0.00000000E+00  0.00000000E+00
  0.00000000E+00  0.00000000E+00  0.00000000E+00
  0.00000000E+00  0.00000000E+00  0.00000000E+00
  0.00000000E+00  0.00000000E+00  0.00000000E+00
  0.00000000E+00  0.00000000E+00  0.00000000E+00
  0.00000000E+00  0.00000000E+00  0.00000000E+00
  0.00000000E+00  0.00000000E+00  0.00000000E+00
  0.00000000E+00  0.00000000E+00  0.00000000E+00
  0.00000000E+00  0.00000000E+00  0.00000000E+00
  0.00000000E+00  0.00000000E+00  0.00000000E+00
  0.00000000E+00  0.00000000E+00  0.00000000E+00
  0.00000000E+00  0.00000000E+00  0.00000000E+00
  0.00000000E+00  0.00000000E+00  0.00000000E+00
  0.00000000E+00  0.00000000E+00  0.00000000E+00
  0.00000000E+00  0.00000000E+00  0.00000000E+00
  0.00000000E+00  0.00000000E+00  0.00000000E+00