&inputpp
  prefix = 'Si',
  outdir = './QEOutput',
  !
  exportDir = './output'
  writeWFC = .true.
/
