Si a=5.46836113565
1.0
  21.8734445426  0.0000000000  0.0000000000
   0.0000000000 21.8734445426  0.0000000000
   0.0000000000  0.0000000000 21.8734445426
   Si
  512
Direct
   0.062500000   0.062500000   0.062500000
   0.187500000   0.187500000   0.062500000
   0.187500000   0.062500000   0.187500000
   0.062500000   0.187500000   0.187500000
   0.000000000   0.000000000   0.000000000
   0.125000000   0.125000000   0.000000000
   0.125000000   0.000000000   0.125000000
   0.000000000   0.125000000   0.125000000
   0.062500000   0.062500000   0.312500000
   0.187500000   0.187500000   0.312500000
   0.187500000   0.062500000   0.437500000
   0.062500000   0.187500000   0.437500000
   0.000000000   0.000000000   0.250000000
   0.125000000   0.125000000   0.250000000
   0.125000000   0.000000000   0.375000000
   0.000000000   0.125000000   0.375000000
   0.062500000   0.062500000   0.562500000
   0.187500000   0.187500000   0.562500000
   0.187500000   0.062500000   0.687500000
   0.062500000   0.187500000   0.687500000
   0.000000000   0.000000000   0.500000000
   0.125000000   0.125000000   0.500000000
   0.125000000   0.000000000   0.625000000
   0.000000000   0.125000000   0.625000000
   0.062500000   0.062500000   0.812500000
   0.187500000   0.187500000   0.812500000
   0.187500000   0.062500000   0.937500000
   0.062500000   0.187500000   0.937500000
   0.000000000   0.000000000   0.750000000
   0.125000000   0.125000000   0.750000000
   0.125000000   0.000000000   0.875000000
   0.000000000   0.125000000   0.875000000
   0.062500000   0.312500000   0.062500000
   0.187500000   0.437500000   0.062500000
   0.187500000   0.312500000   0.187500000
   0.062500000   0.437500000   0.187500000
   0.000000000   0.250000000   0.000000000
   0.125000000   0.375000000   0.000000000
   0.125000000   0.250000000   0.125000000
   0.000000000   0.375000000   0.125000000
   0.062500000   0.312500000   0.312500000
   0.187500000   0.437500000   0.312500000
   0.187500000   0.312500000   0.437500000
   0.062500000   0.437500000   0.437500000
   0.000000000   0.250000000   0.250000000
   0.125000000   0.375000000   0.250000000
   0.125000000   0.250000000   0.375000000
   0.000000000   0.375000000   0.375000000
   0.062500000   0.312500000   0.562500000
   0.187500000   0.437500000   0.562500000
   0.187500000   0.312500000   0.687500000
   0.062500000   0.437500000   0.687500000
   0.000000000   0.250000000   0.500000000
   0.125000000   0.375000000   0.500000000
   0.125000000   0.250000000   0.625000000
   0.000000000   0.375000000   0.625000000
   0.062500000   0.312500000   0.812500000
   0.187500000   0.437500000   0.812500000
   0.187500000   0.312500000   0.937500000
   0.062500000   0.437500000   0.937500000
   0.000000000   0.250000000   0.750000000
   0.125000000   0.375000000   0.750000000
   0.125000000   0.250000000   0.875000000
   0.000000000   0.375000000   0.875000000
   0.062500000   0.562500000   0.062500000
   0.187500000   0.687500000   0.062500000
   0.187500000   0.562500000   0.187500000
   0.062500000   0.687500000   0.187500000
   0.000000000   0.500000000   0.000000000
   0.125000000   0.625000000   0.000000000
   0.125000000   0.500000000   0.125000000
   0.000000000   0.625000000   0.125000000
   0.062500000   0.562500000   0.312500000
   0.187500000   0.687500000   0.312500000
   0.187500000   0.562500000   0.437500000
   0.062500000   0.687500000   0.437500000
   0.000000000   0.500000000   0.250000000
   0.125000000   0.625000000   0.250000000
   0.125000000   0.500000000   0.375000000
   0.000000000   0.625000000   0.375000000
   0.062500000   0.562500000   0.562500000
   0.187500000   0.687500000   0.562500000
   0.187500000   0.562500000   0.687500000
   0.062500000   0.687500000   0.687500000
   0.000000000   0.500000000   0.500000000
   0.125000000   0.625000000   0.500000000
   0.125000000   0.500000000   0.625000000
   0.000000000   0.625000000   0.625000000
   0.062500000   0.562500000   0.812500000
   0.187500000   0.687500000   0.812500000
   0.187500000   0.562500000   0.937500000
   0.062500000   0.687500000   0.937500000
   0.000000000   0.500000000   0.750000000
   0.125000000   0.625000000   0.750000000
   0.125000000   0.500000000   0.875000000
   0.000000000   0.625000000   0.875000000
   0.062500000   0.812500000   0.062500000
   0.187500000   0.937500000   0.062500000
   0.187500000   0.812500000   0.187500000
   0.062500000   0.937500000   0.187500000
   0.000000000   0.750000000   0.000000000
   0.125000000   0.875000000   0.000000000
   0.125000000   0.750000000   0.125000000
   0.000000000   0.875000000   0.125000000
   0.062500000   0.812500000   0.312500000
   0.187500000   0.937500000   0.312500000
   0.187500000   0.812500000   0.437500000
   0.062500000   0.937500000   0.437500000
   0.000000000   0.750000000   0.250000000
   0.125000000   0.875000000   0.250000000
   0.125000000   0.750000000   0.375000000
   0.000000000   0.875000000   0.375000000
   0.062500000   0.812500000   0.562500000
   0.187500000   0.937500000   0.562500000
   0.187500000   0.812500000   0.687500000
   0.062500000   0.937500000   0.687500000
   0.000000000   0.750000000   0.500000000
   0.125000000   0.875000000   0.500000000
   0.125000000   0.750000000   0.625000000
   0.000000000   0.875000000   0.625000000
   0.062500000   0.812500000   0.812500000
   0.187500000   0.937500000   0.812500000
   0.187500000   0.812500000   0.937500000
   0.062500000   0.937500000   0.937500000
   0.000000000   0.750000000   0.750000000
   0.125000000   0.875000000   0.750000000
   0.125000000   0.750000000   0.875000000
   0.000000000   0.875000000   0.875000000
   0.312500000   0.062500000   0.062500000
   0.437500000   0.187500000   0.062500000
   0.437500000   0.062500000   0.187500000
   0.312500000   0.187500000   0.187500000
   0.250000000   0.000000000   0.000000000
   0.375000000   0.125000000   0.000000000
   0.375000000   0.000000000   0.125000000
   0.250000000   0.125000000   0.125000000
   0.312500000   0.062500000   0.312500000
   0.437500000   0.187500000   0.312500000
   0.437500000   0.062500000   0.437500000
   0.312500000   0.187500000   0.437500000
   0.250000000   0.000000000   0.250000000
   0.375000000   0.125000000   0.250000000
   0.375000000   0.000000000   0.375000000
   0.250000000   0.125000000   0.375000000
   0.312500000   0.062500000   0.562500000
   0.437500000   0.187500000   0.562500000
   0.437500000   0.062500000   0.687500000
   0.312500000   0.187500000   0.687500000
   0.250000000   0.000000000   0.500000000
   0.375000000   0.125000000   0.500000000
   0.375000000   0.000000000   0.625000000
   0.250000000   0.125000000   0.625000000
   0.312500000   0.062500000   0.812500000
   0.437500000   0.187500000   0.812500000
   0.437500000   0.062500000   0.937500000
   0.312500000   0.187500000   0.937500000
   0.250000000   0.000000000   0.750000000
   0.375000000   0.125000000   0.750000000
   0.375000000   0.000000000   0.875000000
   0.250000000   0.125000000   0.875000000
   0.312500000   0.312500000   0.062500000
   0.437500000   0.437500000   0.062500000
   0.437500000   0.312500000   0.187500000
   0.312500000   0.437500000   0.187500000
   0.250000000   0.250000000   0.000000000
   0.375000000   0.375000000   0.000000000
   0.375000000   0.250000000   0.125000000
   0.250000000   0.375000000   0.125000000
   0.312500000   0.312500000   0.812500000
   0.437500000   0.437500000   0.812500000
   0.437500000   0.312500000   0.937500000
   0.312500000   0.437500000   0.937500000
   0.250000000   0.250000000   0.750000000
   0.375000000   0.375000000   0.750000000
   0.375000000   0.250000000   0.875000000
   0.250000000   0.375000000   0.875000000
   0.312500000   0.562500000   0.062500000
   0.437500000   0.687500000   0.062500000
   0.437500000   0.562500000   0.187500000
   0.312500000   0.687500000   0.187500000
   0.250000000   0.500000000   0.000000000
   0.375000000   0.625000000   0.000000000
   0.375000000   0.500000000   0.125000000
   0.250000000   0.625000000   0.125000000
   0.312500000   0.562500000   0.812500000
   0.437500000   0.687500000   0.812500000
   0.437500000   0.562500000   0.937500000
   0.312500000   0.687500000   0.937500000
   0.250000000   0.500000000   0.750000000
   0.375000000   0.625000000   0.750000000
   0.375000000   0.500000000   0.875000000
   0.250000000   0.625000000   0.875000000
   0.312500000   0.812500000   0.062500000
   0.437500000   0.937500000   0.062500000
   0.437500000   0.812500000   0.187500000
   0.312500000   0.937500000   0.187500000
   0.250000000   0.750000000   0.000000000
   0.375000000   0.875000000   0.000000000
   0.375000000   0.750000000   0.125000000
   0.250000000   0.875000000   0.125000000
   0.312500000   0.812500000   0.312500000
   0.437500000   0.937500000   0.312500000
   0.437500000   0.812500000   0.437500000
   0.312500000   0.937500000   0.437500000
   0.250000000   0.750000000   0.250000000
   0.375000000   0.875000000   0.250000000
   0.375000000   0.750000000   0.375000000
   0.250000000   0.875000000   0.375000000
   0.312500000   0.812500000   0.562500000
   0.437500000   0.937500000   0.562500000
   0.437500000   0.812500000   0.687500000
   0.312500000   0.937500000   0.687500000
   0.250000000   0.750000000   0.500000000
   0.375000000   0.875000000   0.500000000
   0.375000000   0.750000000   0.625000000
   0.250000000   0.875000000   0.625000000
   0.312500000   0.812500000   0.812500000
   0.437500000   0.937500000   0.812500000
   0.437500000   0.812500000   0.937500000
   0.312500000   0.937500000   0.937500000
   0.250000000   0.750000000   0.750000000
   0.375000000   0.875000000   0.750000000
   0.375000000   0.750000000   0.875000000
   0.250000000   0.875000000   0.875000000
   0.562500000   0.062500000   0.062500000
   0.687500000   0.187500000   0.062500000
   0.687500000   0.062500000   0.187500000
   0.562500000   0.187500000   0.187500000
   0.500000000   0.000000000   0.000000000
   0.625000000   0.125000000   0.000000000
   0.625000000   0.000000000   0.125000000
   0.500000000   0.125000000   0.125000000
   0.562500000   0.062500000   0.312500000
   0.687500000   0.187500000   0.312500000
   0.687500000   0.062500000   0.437500000
   0.562500000   0.187500000   0.437500000
   0.500000000   0.000000000   0.250000000
   0.625000000   0.125000000   0.250000000
   0.625000000   0.000000000   0.375000000
   0.500000000   0.125000000   0.375000000
   0.562500000   0.062500000   0.562500000
   0.687500000   0.187500000   0.562500000
   0.687500000   0.062500000   0.687500000
   0.562500000   0.187500000   0.687500000
   0.500000000   0.000000000   0.500000000
   0.625000000   0.125000000   0.500000000
   0.625000000   0.000000000   0.625000000
   0.500000000   0.125000000   0.625000000
   0.562500000   0.062500000   0.812500000
   0.687500000   0.187500000   0.812500000
   0.687500000   0.062500000   0.937500000
   0.562500000   0.187500000   0.937500000
   0.500000000   0.000000000   0.750000000
   0.625000000   0.125000000   0.750000000
   0.625000000   0.000000000   0.875000000
   0.500000000   0.125000000   0.875000000
   0.562500000   0.312500000   0.062500000
   0.687500000   0.437500000   0.062500000
   0.687500000   0.312500000   0.187500000
   0.562500000   0.437500000   0.187500000
   0.500000000   0.250000000   0.000000000
   0.625000000   0.375000000   0.000000000
   0.625000000   0.250000000   0.125000000
   0.500000000   0.375000000   0.125000000
   0.562500000   0.312500000   0.812500000
   0.687500000   0.437500000   0.812500000
   0.687500000   0.312500000   0.937500000
   0.562500000   0.437500000   0.937500000
   0.500000000   0.250000000   0.750000000
   0.625000000   0.375000000   0.750000000
   0.625000000   0.250000000   0.875000000
   0.500000000   0.375000000   0.875000000
   0.562500000   0.562500000   0.062500000
   0.687500000   0.687500000   0.062500000
   0.687500000   0.562500000   0.187500000
   0.562500000   0.687500000   0.187500000
   0.500000000   0.500000000   0.000000000
   0.625000000   0.625000000   0.000000000
   0.625000000   0.500000000   0.125000000
   0.500000000   0.625000000   0.125000000
   0.562500000   0.562500000   0.812500000
   0.687500000   0.687500000   0.812500000
   0.687500000   0.562500000   0.937500000
   0.562500000   0.687500000   0.937500000
   0.500000000   0.500000000   0.750000000
   0.625000000   0.625000000   0.750000000
   0.625000000   0.500000000   0.875000000
   0.500000000   0.625000000   0.875000000
   0.562500000   0.812500000   0.062500000
   0.687500000   0.937500000   0.062500000
   0.687500000   0.812500000   0.187500000
   0.562500000   0.937500000   0.187500000
   0.500000000   0.750000000   0.000000000
   0.625000000   0.875000000   0.000000000
   0.625000000   0.750000000   0.125000000
   0.500000000   0.875000000   0.125000000
   0.562500000   0.812500000   0.312500000
   0.687500000   0.937500000   0.312500000
   0.687500000   0.812500000   0.437500000
   0.562500000   0.937500000   0.437500000
   0.500000000   0.750000000   0.250000000
   0.625000000   0.875000000   0.250000000
   0.625000000   0.750000000   0.375000000
   0.500000000   0.875000000   0.375000000
   0.562500000   0.812500000   0.562500000
   0.687500000   0.937500000   0.562500000
   0.687500000   0.812500000   0.687500000
   0.562500000   0.937500000   0.687500000
   0.500000000   0.750000000   0.500000000
   0.625000000   0.875000000   0.500000000
   0.625000000   0.750000000   0.625000000
   0.500000000   0.875000000   0.625000000
   0.562500000   0.812500000   0.812500000
   0.687500000   0.937500000   0.812500000
   0.687500000   0.812500000   0.937500000
   0.562500000   0.937500000   0.937500000
   0.500000000   0.750000000   0.750000000
   0.625000000   0.875000000   0.750000000
   0.625000000   0.750000000   0.875000000
   0.500000000   0.875000000   0.875000000
   0.812500000   0.062500000   0.062500000
   0.937500000   0.187500000   0.062500000
   0.937500000   0.062500000   0.187500000
   0.812500000   0.187500000   0.187500000
   0.750000000   0.000000000   0.000000000
   0.875000000   0.125000000   0.000000000
   0.875000000   0.000000000   0.125000000
   0.750000000   0.125000000   0.125000000
   0.812500000   0.062500000   0.312500000
   0.937500000   0.187500000   0.312500000
   0.937500000   0.062500000   0.437500000
   0.812500000   0.187500000   0.437500000
   0.750000000   0.000000000   0.250000000
   0.875000000   0.125000000   0.250000000
   0.875000000   0.000000000   0.375000000
   0.750000000   0.125000000   0.375000000
   0.812500000   0.062500000   0.562500000
   0.937500000   0.187500000   0.562500000
   0.937500000   0.062500000   0.687500000
   0.812500000   0.187500000   0.687500000
   0.750000000   0.000000000   0.500000000
   0.875000000   0.125000000   0.500000000
   0.875000000   0.000000000   0.625000000
   0.750000000   0.125000000   0.625000000
   0.812500000   0.062500000   0.812500000
   0.937500000   0.187500000   0.812500000
   0.937500000   0.062500000   0.937500000
   0.812500000   0.187500000   0.937500000
   0.750000000   0.000000000   0.750000000
   0.875000000   0.125000000   0.750000000
   0.875000000   0.000000000   0.875000000
   0.750000000   0.125000000   0.875000000
   0.812500000   0.312500000   0.062500000
   0.937500000   0.437500000   0.062500000
   0.937500000   0.312500000   0.187500000
   0.812500000   0.437500000   0.187500000
   0.750000000   0.250000000   0.000000000
   0.875000000   0.375000000   0.000000000
   0.875000000   0.250000000   0.125000000
   0.750000000   0.375000000   0.125000000
   0.812500000   0.312500000   0.312500000
   0.937500000   0.437500000   0.312500000
   0.937500000   0.312500000   0.437500000
   0.812500000   0.437500000   0.437500000
   0.750000000   0.250000000   0.250000000
   0.875000000   0.375000000   0.250000000
   0.875000000   0.250000000   0.375000000
   0.750000000   0.375000000   0.375000000
   0.812500000   0.312500000   0.562500000
   0.937500000   0.437500000   0.562500000
   0.937500000   0.312500000   0.687500000
   0.812500000   0.437500000   0.687500000
   0.750000000   0.250000000   0.500000000
   0.875000000   0.375000000   0.500000000
   0.875000000   0.250000000   0.625000000
   0.750000000   0.375000000   0.625000000
   0.812500000   0.312500000   0.812500000
   0.937500000   0.437500000   0.812500000
   0.937500000   0.312500000   0.937500000
   0.812500000   0.437500000   0.937500000
   0.750000000   0.250000000   0.750000000
   0.875000000   0.375000000   0.750000000
   0.875000000   0.250000000   0.875000000
   0.750000000   0.375000000   0.875000000
   0.812500000   0.562500000   0.062500000
   0.937500000   0.687500000   0.062500000
   0.937500000   0.562500000   0.187500000
   0.812500000   0.687500000   0.187500000
   0.750000000   0.500000000   0.000000000
   0.875000000   0.625000000   0.000000000
   0.875000000   0.500000000   0.125000000
   0.750000000   0.625000000   0.125000000
   0.812500000   0.562500000   0.312500000
   0.937500000   0.687500000   0.312500000
   0.937500000   0.562500000   0.437500000
   0.812500000   0.687500000   0.437500000
   0.750000000   0.500000000   0.250000000
   0.875000000   0.625000000   0.250000000
   0.875000000   0.500000000   0.375000000
   0.750000000   0.625000000   0.375000000
   0.812500000   0.562500000   0.562500000
   0.937500000   0.687500000   0.562500000
   0.937500000   0.562500000   0.687500000
   0.812500000   0.687500000   0.687500000
   0.750000000   0.500000000   0.500000000
   0.875000000   0.625000000   0.500000000
   0.875000000   0.500000000   0.625000000
   0.750000000   0.625000000   0.625000000
   0.812500000   0.562500000   0.812500000
   0.937500000   0.687500000   0.812500000
   0.937500000   0.562500000   0.937500000
   0.812500000   0.687500000   0.937500000
   0.750000000   0.500000000   0.750000000
   0.875000000   0.625000000   0.750000000
   0.875000000   0.500000000   0.875000000
   0.750000000   0.625000000   0.875000000
   0.812500000   0.812500000   0.062500000
   0.937500000   0.937500000   0.062500000
   0.937500000   0.812500000   0.187500000
   0.812500000   0.937500000   0.187500000
   0.750000000   0.750000000   0.000000000
   0.875000000   0.875000000   0.000000000
   0.875000000   0.750000000   0.125000000
   0.750000000   0.875000000   0.125000000
   0.812500000   0.812500000   0.312500000
   0.937500000   0.937500000   0.312500000
   0.937500000   0.812500000   0.437500000
   0.812500000   0.937500000   0.437500000
   0.750000000   0.750000000   0.250000000
   0.875000000   0.875000000   0.250000000
   0.875000000   0.750000000   0.375000000
   0.750000000   0.875000000   0.375000000
   0.812500000   0.812500000   0.562500000
   0.937500000   0.937500000   0.562500000
   0.937500000   0.812500000   0.687500000
   0.812500000   0.937500000   0.687500000
   0.750000000   0.750000000   0.500000000
   0.875000000   0.875000000   0.500000000
   0.875000000   0.750000000   0.625000000
   0.750000000   0.875000000   0.625000000
   0.812500000   0.812500000   0.812500000
   0.937500000   0.937500000   0.812500000
   0.937500000   0.812500000   0.937500000
   0.812500000   0.937500000   0.937500000
   0.750000000   0.750000000   0.750000000
   0.875000000   0.875000000   0.750000000
   0.875000000   0.750000000   0.875000000
   0.750000000   0.875000000   0.875000000
   0.312500000   0.312500000   0.312500000
   0.437500000   0.437500000   0.312500000
   0.437500000   0.312500000   0.437500000
   0.312500000   0.437500000   0.437500000
   0.250000000   0.250000000   0.250000000
   0.375000000   0.375000000   0.250000000
   0.375000000   0.250000000   0.375000000
   0.250000000   0.375000000   0.375000000
   0.312500000   0.312500000   0.562500000
   0.437500000   0.437500000   0.562500000
   0.437500000   0.312500000   0.687500000
   0.312500000   0.437500000   0.687500000
   0.250000000   0.250000000   0.500000000
   0.375000000   0.375000000   0.500000000
   0.375000000   0.250000000   0.625000000
   0.250000000   0.375000000   0.625000000
   0.312500000   0.562500000   0.312500000
   0.437500000   0.687500000   0.312500000
   0.437500000   0.562500000   0.437500000
   0.312500000   0.687500000   0.437500000
   0.250000000   0.500000000   0.250000000
   0.375000000   0.625000000   0.250000000
   0.375000000   0.500000000   0.375000000
   0.250000000   0.625000000   0.375000000
   0.312500000   0.562500000   0.562500000
   0.437500000   0.687500000   0.562500000
   0.437500000   0.562500000   0.687500000
   0.312500000   0.687500000   0.687500000
   0.250000000   0.500000000   0.500000000
   0.375000000   0.625000000   0.500000000
   0.375000000   0.500000000   0.625000000
   0.250000000   0.625000000   0.625000000
   0.562500000   0.312500000   0.312500000
   0.687500000   0.437500000   0.312500000
   0.687500000   0.312500000   0.437500000
   0.562500000   0.437500000   0.437500000
   0.500000000   0.250000000   0.250000000
   0.625000000   0.375000000   0.250000000
   0.625000000   0.250000000   0.375000000
   0.500000000   0.375000000   0.375000000
   0.562500000   0.312500000   0.562500000
   0.687500000   0.437500000   0.562500000
   0.687500000   0.312500000   0.687500000
   0.562500000   0.437500000   0.687500000
   0.500000000   0.250000000   0.500000000
   0.625000000   0.375000000   0.500000000
   0.625000000   0.250000000   0.625000000
   0.500000000   0.375000000   0.625000000
   0.562500000   0.562500000   0.312500000
   0.687500000   0.687500000   0.312500000
   0.687500000   0.562500000   0.437500000
   0.562500000   0.687500000   0.437500000
   0.500000000   0.500000000   0.250000000
   0.625000000   0.625000000   0.250000000
   0.625000000   0.500000000   0.375000000
   0.500000000   0.625000000   0.375000000
   0.562500000   0.562500000   0.562500000
   0.687500000   0.687500000   0.562500000
   0.687500000   0.562500000   0.687500000
   0.562500000   0.687500000   0.687500000
   0.500000000   0.500000000   0.500000000
   0.625000000   0.625000000   0.500000000
   0.625000000   0.500000000   0.625000000
   0.500000000   0.625000000   0.625000000
