Si                                      
   1.00000000000000     
    21.8806751037877660    0.0000000000000000    0.0000000000000000
     0.0000000000000000   21.8806751037877660    0.0000000000000000
     0.0000000000000000    0.0000000000000000   21.8806751037877660
   Si   H 
   511     3
Direct
  0.0624700791967129  0.0624991605421385  0.0624991604518384
  0.0623128982532978  0.0623221978828624  0.5625622516896751
  0.0623128946364263  0.5625622530783483  0.0623221937555092
  0.0624860441643161  0.5625151163537410  0.5625151168964110
  0.5625669387705470  0.0624929563823528  0.0624929572972999
  0.5625098939791190  0.0625136477472310  0.5625205000232332
  0.5625098944902582  0.5625204990337563  0.0625136484201470
  0.5684486148964518  0.5663371264974401  0.5663371382120482
  0.1874159417268938  0.1874512371402838  0.0625395131755623
  0.1868567573144877  0.1868724579486949  0.5625960667267493
  0.1873815375980495  0.6876058305687488  0.0623784607091343
  0.1875154867991924  0.6875135421266282  0.5624725388522085
  0.6875418424496743  0.1875654351443451  0.0626350921076462
  0.6875919703066273  0.1873814689834155  0.5625817850539813
  0.6875905460307000  0.6875565636801558  0.0624368172995070
  0.6889175616077278  0.6890634766170587  0.5628053997845723
  0.1874159424686370  0.0625395137293824  0.1874512359173829
  0.1873815371493623  0.0623784626371508  0.6876058308958637
  0.1868567541125364  0.5625960731331701  0.1868724515632547
  0.1875154869202542  0.5624725396218230  0.6875135399407795
  0.6875418419397537  0.0626350930823234  0.1875654348803085
  0.6875905488702658  0.0624368160465910  0.6875565635867146
  0.6875919672166182  0.5625817874858041  0.1873814727441973
  0.6889175591791635  0.5628053880343803  0.6890634794126065
  0.0624441713225241  0.1874902216001364  0.1874902200181445
  0.0623890187637270  0.1874055790761098  0.6875896939194270
  0.0623890169897351  0.6875896931733674  0.1874055786701364
  0.0624805974502837  0.6875417369196717  0.6875417363980368
  0.5625325201066115  0.1873340194265855  0.1873340183233488
  0.5625247047114315  0.1873169797411360  0.6876730693770725
  0.5625247019895321  0.6876730726785432  0.1873169841133336
  0.5626439781884907  0.6879322136354525  0.6879322168997870
 -0.0000050666844022  0.0000050665241038  0.0000050666749850
 -0.0000419286292020  0.0000419337620622  0.4999678902701623
 -0.0000419305662117  0.4999678902047717  0.0000419290727136
 -0.0000159982162497  0.4999969779363928  0.4999969776970868
  0.5000321093549907  0.0000419302159010  0.0000419316497339
  0.5000030209879701  0.0000159965572261  0.4999969789814331
  0.5000030201416795  0.4999969784587028  0.0000159974829621
  0.1249656716891887  0.1249740746183167  0.0000107836552745
  0.1245981554501711  0.1246375095960480  0.4999342923850444
  0.1249446625088417  0.6250529150172327 -0.0000652316271753
  0.1249498433051483  0.6250518281609853  0.4999980973866002
  0.6250762226959451  0.1250659630445517  0.0001290300024915
  0.6250022789456567  0.1250300910614414  0.5000166299330384
  0.6250288887362879  0.6250231258875671  0.0000137138568158
  0.6270747775676198  0.6271666086374621  0.5001329581465171
  0.1249656721766935  0.0000107829417657  0.1249740737300264
  0.1249446626891308 -0.0000652305925989  0.6250529153002242
  0.1245981535106185  0.4999342974549242  0.1246375035107347
  0.1249498440190047  0.4999980969224240  0.6250518274864296
  0.6250762227683084  0.0001290294710003  0.1250659641987247
  0.6250288904686628  0.0000137134828934  0.6250231262380197
  0.6250022796358188  0.5000166304231197  0.1250300919988490
  0.6270747754778475  0.5001329377333433  0.6271666162442977
 -0.0000295048531614  0.1250038928086487  0.1250038918348325
 -0.0000516554676883  0.1249448933125138  0.6250454473362054
 -0.0000516569964503  0.6250454464559816  0.1249448936568997
 -0.0000011873324063  0.6250261559921249  0.6250261537898536
  0.4999752804084606  0.1248993991730134  0.1248993974279468
  0.4999857786464963  0.1249405281608303  0.6250796371224118
  0.4999857802808683  0.6250796392812236  0.1249405283521835
  0.5001714276107020  0.6254880144327641  0.6254880183462176
  0.0623945448951227  0.0625866159122200  0.3124545916276708
  0.0624634377390609  0.0624644211835305  0.8125441375234190
  0.0624397759024682  0.5625010425048271  0.3124440095464336
  0.0624912365861206  0.5625210220161135  0.8125365322759238
  0.5624932298597177  0.0625435276376017  0.3125028883614491
  0.5625382405633317  0.0624281308672637  0.8126034799400975
  0.5622775390400243  0.5628846116037294  0.3122236926632935
  0.5625780886968201  0.5625785354248001  0.8126551008410610
  0.1874591729807128  0.1874815044896720  0.3124642160055272
  0.1874267912526682  0.1874296499682621  0.8125732096439018
  0.1871824664963032  0.6877360318420507  0.3123667175136822
  0.1875091979868394  0.6875127415282469  0.8124908026092279
  0.6872771515899496  0.1878123803636995  0.3127228467893263
  0.6875357832663632  0.1874815028196668  0.8125408275221205
  0.6874991845820785  0.6875237477306415  0.3125008162829889
  0.6876332783720319  0.6877360306070475  0.8128175320363238
  0.1873965220704435  0.0624281313123240  0.4374617578791151
  0.1874558624020752  0.0624644212161278  0.9375365628003043
  0.1873448971939541  0.5625785394335034  0.4374219061096183
  0.1874634659239722  0.5625210213245952  0.9375087622218553
  0.6874971115389923  0.0625435279505337  0.4375067684017839
  0.6875454088960594  0.0625866156669383  0.9376054570519766
  0.6877763135722894  0.5628846147303032  0.4377224649584270
  0.6875559888995801  0.5625010408316492  0.9375602225793843
  0.0623758960755686  0.1874402004323261  0.4374587005998805
  0.0624460350526369  0.1874639436530934  0.9375539659151446
  0.0624576868801467  0.6875553422795413  0.4374879375265735
  0.0625042664570048  0.6875900123729975  0.9374957342381387
  0.5623984913777796  0.1875296898723632  0.4376015087016443
  0.5625412970172644  0.1874401966442510  0.9376241033604915
  0.5624987828982446  0.6877928889605310  0.4375012322717530
  0.5625120613578680  0.6875553408285787  0.9375423129017721
 -0.0000392945232316  0.0000392973646271  0.2499864967704665
  0.0000005827485114 -0.0000005843067706  0.7500445074646436
 -0.0000545775800680  0.4999828813470249  0.2499652881328851
  0.0000047192223054  0.4999951066457040  0.7500675697408391
  0.5000171180176752  0.0000545783767110  0.2499652870065617
  0.5000048941215693 -0.0000047207082446  0.7500675715828469
  0.4998323915931286  0.5001676133815723  0.2499086629648904
  0.5000505528475770  0.4999494399606624  0.7502963929037186
  0.1249391705866210  0.1250169660306937  0.2499634755920698
  0.1249347218628287  0.1249504940402768  0.7500601225775091
  0.1248087363046984  0.6250589585242801  0.2498599634694573
  0.1249952148155948  0.6250105546875967  0.7500054381013617
  0.6250013744859808  0.1251159690500504  0.2500991009257877
  0.6250855196780546  0.1248720590750885  0.7500908700875284
  0.6250613772575150  0.6250987595596769  0.2498302075287964
  0.6251789514049994  0.6252341314414058  0.7503892697956326
  0.1248726036687073  0.0000694063813716  0.3749279893023457
  0.1249678455020224 -0.0000010264956111  0.8750321547819097
  0.1249330551517538  0.4999930209452497  0.3749283239332973
  0.1248225934478925  0.5000200011553330  0.8751774044217074
  0.6250292311003671  0.0000397839846196  0.3749707682750003
  0.6250720094895380  0.0000694063405181  0.8751273988508753
  0.6247873314960982  0.5007112007039326  0.3752126746421591
  0.6250716720658213  0.4999930182910353  0.8750669451389654
 -0.0001290287974107  0.1250659640785611  0.3749237761474730
 -0.0000107829092981  0.1249740745519158  0.8750343292050738
 -0.0000137138253367  0.6250231292684209  0.3749711086768909
  0.0000652322105804  0.6250529144926409  0.8750553384403622
  0.4999833692128252  0.1250300925928069  0.3749977194891055
  0.5000657013766949  0.1246375070725056  0.8754018442954526
  0.4998670594752475  0.6271666044084411  0.3729252403121863
  0.5000019012754259  0.6250518265451566  0.8750501567529864
  0.0623945439281824  0.3124545938686036  0.0625866148434037
  0.0624397760794263  0.3124440089211880  0.5625010442404272
  0.0624634382863790  0.8125441349558831  0.0624644212134437
  0.0624912374566998  0.8125365355868410  0.5625210218300385
  0.5624932307665168  0.3125028876882551  0.0625435280879024
  0.5622775421285761  0.3122236820548856  0.5628846106832929
  0.5625382391549942  0.8126034815591054  0.0624281316166597
  0.5625780916303670  0.8126550995747712  0.5625785410079633
  0.1873965199695405  0.4374617599143873  0.0624281284312820
  0.1873448981139743  0.4374219076709929  0.5625785369390111
  0.1874558635997550  0.9375365602237774  0.0624644224044964
  0.1874634679042517  0.9375087638632063  0.5625210236030299
  0.6874971108639844  0.4375067692699625  0.0625435274981106
  0.6877763124458578  0.4377224598753973  0.5628846107575260
  0.6875454081057295  0.9376054582503623  0.0625866139184090
  0.6875559911914376  0.9375602236626279  0.5625010401554227
  0.1874591717652778  0.3124642188149030  0.1874815028829744
  0.1871824696121373  0.3123667181237655  0.6877360309049793
  0.1874267922973237  0.8125732067651277  0.1874296489279097
  0.1875091978694341  0.8124908018112385  0.6875127430885691
  0.6872771525739809  0.3127228488523436  0.1878123782528215
  0.6874991854270611  0.3125008156684044  0.6875237476901770
  0.6875357817104488  0.8125408287183264  0.1874815029656498
  0.6876332814490258  0.8128175326057074  0.6877360341531792
  0.0623758963837900  0.4374587044127148  0.1874401962079260
  0.0624576872855115  0.4374879377692442  0.6875553410986340
  0.0624460362580999  0.9375539645732860  0.1874639428962070
  0.0625042669102691  0.9374957347918434  0.6875900140758568
  0.5623984889782725  0.4376015120435929  0.1875296905639046
  0.5624987735522449  0.4375012175412236  0.6877928913178817
  0.5625412985413503  0.9376241033085035  0.1874402005231876
  0.5625120615486187  0.9375423126184806  0.6875553404442482
 -0.0000392959453809  0.2499864992496209  0.0000392973505856
 -0.0000545778178667  0.2499652877859748  0.4999828817489785
  0.0000005830101659  0.7500445055556295 -0.0000005835654993
  0.0000047202434863  0.7500675741591051  0.4999951050674293
  0.5000171186531849  0.2499652870080381  0.0000545777653954
  0.4998323904186929  0.2499086613303418  0.5001676069884297
  0.5000048938106874  0.7500675713421381 -0.0000047193985000
  0.5000505570251714  0.7502963904484174  0.4999494467787755
  0.1248726014238647  0.3749279919320714  0.0000694041841268
  0.1249330534511270  0.3749283251989619  0.4999930210200967
  0.1249678462087760  0.8750321525569028 -0.0000010252681215
  0.1248225921249737  0.8751774112252970  0.5000200007082256
  0.6250292313091642  0.3749707674134819  0.0000397847729424
  0.6247873310459251  0.3752126676172076  0.5007111965660384
  0.6250720085507468  0.8751273990419114  0.0000694060644426
  0.6250716745851691  0.8750669423297857  0.4999930225098224
  0.1249391694802169  0.2499634774906043  0.1250169642395967
  0.1248087389764376  0.2498599637400725  0.6250589570104568
  0.1249347218395099  0.7500601200458406  0.1249504936477485
  0.1249952136068908  0.7500054397680190  0.6250105542069598
  0.6250013761079101  0.2500991004268868  0.1251159688101484
  0.6250613827064125  0.2498302025257411  0.6250987592272699
  0.6250855170798318  0.7500908708716872  0.1248720606158675
  0.6251789530120729  0.7503892676798503  0.6252341393046469
 -0.0001290296736534  0.3749237789091642  0.1250659619940507
 -0.0000137145937779  0.3749711085285076  0.6250231292945321
 -0.0000107821758537  0.8750343282225147  0.1249740736463426
  0.0000652325622006  0.8750553388590104  0.6250529163750336
  0.4999833708356120  0.3749977220147939  0.1250300910713847
  0.4998670566705931  0.3729252232921394  0.6271666001813372
  0.5000657031439184  0.8754018459441095  0.1246375119798799
  0.5000019006596989  0.8750501543392604  0.6250518300991675
  0.0623614692034849  0.3124174540842761  0.3124174511185493
  0.0623567462021012  0.3123981063558759  0.8126561503373244
  0.0623567449644721  0.8126561510967871  0.3123981048190951
  0.0625295906857030  0.8125697873810066  0.8125697896038114
  0.5619523764735582  0.3124783528551903  0.3124783486261172
  0.5625447641672338  0.3123578033394051  0.8126923687700962
  0.5625447684996158  0.8126923678511231  0.3123578141010684
  0.5625641742294447  0.8127635918209853  0.8127635923165819
  0.1873076294814269  0.4374552366800497  0.3123578023196205
  0.1872364111133650  0.4374358245859344  0.8127635870380381
  0.1873438514722521  0.9376432547926030  0.3123981038797268
  0.1874302107840823  0.9374704095089683  0.8125697891439836
  0.6875216447047016  0.4380476282498070  0.3124783550020164
  0.6876421902961704  0.4374552315178262  0.8126923700743613
  0.6875825487796297  0.9376385294396430  0.3124174532820156
  0.6876018948185176  0.9376432550670171  0.8126561496225969
  0.1873076279825271  0.3123578113718871  0.4374552299909725
  0.1873438500219390  0.3123981062386938  0.9376432539216127
  0.1872364077116690  0.8127635930449971  0.4374358238351961
  0.1874302109176551  0.8125697874803978  0.9374704103299656
  0.6875216492753583  0.3124783538383233  0.4380476239701246
  0.6875825476365092  0.3124174520593766  0.9376385296809946
  0.6876421965559281  0.8126923666827692  0.4374552397172966
  0.6876018936954259  0.8126561493560641  0.9376432546174381
  0.0624776217464281  0.4374791478257140  0.4374791464040036
  0.0623834337891935  0.4374389960094536  0.9376165656556844
  0.0623834338447231  0.9376165698987486  0.4374389943399249
  0.0624858822281457  0.9375141155992665  0.9375141175857120
  0.5648524320485900  0.4351475642503587  0.4351475642868912
  0.5625208502538651  0.4374791450996553  0.9375223787730086
  0.5625208527980814  0.9375223766202497  0.4374791491530032
  0.5625610046350541  0.9376165677633950  0.9376165672989364
 -0.0001134877947668  0.2499427756224810  0.2499427735758405
 -0.0000472103355000  0.2499039329439802  0.7500956880161560
 -0.0000472117236605  0.7500956883032619  0.2499039317502233
  0.0000737264236164  0.7500943030781499  0.7500943058429641
  0.4998805548662775  0.2497209384088686  0.2497209319424590
  0.5000273241668615  0.2490496234369798  0.7509678543450322
  0.5000273263211537  0.7509678580767303  0.2490496348537470
  0.5000868618496765  0.7503074997481752  0.7503075054523120
  0.1248514110631960  0.3749177891818922  0.2499227449488338
  0.1247738051142877  0.3749434301889679  0.7502004436631821
  0.1249372263962863  0.8750627748544888  0.2499321248028603
  0.1250034306233457  0.8749965684198193  0.7500551154951998
  0.6246761649346465  0.3753238385672935  0.2504569865434417
  0.6250525275028062  0.3749474673944210  0.7501684557197322
  0.6250822125311720  0.8751485865966823  0.2499227507047648
  0.6250565677879979  0.8752261965999294  0.7502004469726012
  0.1248514114035187  0.2499227489679448  0.3749177842755130
  0.1249372248766234  0.2499321261714343  0.8750627758243229
  0.1247738035927543  0.7502004464929237  0.3749434297026485
  0.1250034308032619  0.7500551141076285  0.8749965700719116
  0.6246761639416007  0.2504569899096163  0.3753238356005978
  0.6250822120836759  0.2499227455962225  0.8751485884297415
  0.6250525322571061  0.7501684529227837  0.3749474770283961
  0.6250565674735332  0.7502004455193637  0.8752261962096379
 -0.0000397854202742  0.3749707684668502  0.3749707689609185
 -0.0000694057061155  0.3749279926141571  0.8751273976697331
 -0.0000694050596565  0.8751274013490117  0.3749279905085681
  0.0000010253959683  0.8750321518830578  0.8750321536398494
  0.4992888026309530  0.3752126697908814  0.3752126597353431
  0.5000069784192760  0.3749283219541972  0.8750669444173873
  0.5000069783272851  0.8750669436878725  0.3749283280238265
  0.4999799976037331  0.8751774089250388  0.8751774098259550
  0.3124171662009815  0.0625029063434206  0.0625029066910274
  0.3124248436398283  0.0624551764801345  0.5625203108820614
  0.3124248435253316  0.5625203096512394  0.0624551752936776
  0.3125178540726347  0.5622735622597588  0.5622735619352086
  0.8124859115506767  0.0625382180111479  0.0625382168077864
  0.8125543198958249  0.0624790441107087  0.5625221811175179
  0.8125543177904129  0.5625221806269686  0.0624790446117815
  0.8126261066006488  0.5626371475671179  0.5626371486312125
  0.4374778174018781  0.1874456811611188  0.0624790428720791
  0.4373628502462377  0.1873738935504702  0.5626371476535275
  0.4374796900030786  0.6875751569335093  0.0624551756057256
  0.4377264339873534  0.6874821411665030  0.5622735644809980
  0.9374617824355261  0.1875140902274743  0.0625382184425373
  0.9375209568264000  0.1874456810641300  0.5625221829157254
  0.9374970933470786  0.6875828316063927  0.0625029054069282
  0.9375448251606239  0.6875751579266897  0.5625203077667216
  0.4374778180775206  0.0624790434235898  0.1874456791051407
  0.4374796902757572  0.0624551764311229  0.6875751593612860
  0.4373628508464769  0.5626371507687364  0.1873738926514181
  0.4377264343365771  0.5622735595118770  0.6874821419189840
  0.9374617825823967  0.0625382191788375  0.1875140886659367
  0.9374970943410389  0.0625029059867920  0.6875828340549259
  0.9375209559810851  0.5625221821521362  0.1874456832577596
  0.9375448235418572  0.5625203098979396  0.6875751539514795
  0.3124664557658863  0.1874820549402400  0.1874820522906620
  0.3122991233579270  0.1871826583159644  0.6877008737912105
  0.3122991260697037  0.6877008745703402  0.1871826582355119
  0.3125826420547599  0.6874173540728394  0.6874173576604280
  0.8124083352461744  0.1875916659113362  0.1875916640409629
  0.8125179465158930  0.1874820538126316  0.6875335448793576
  0.8125179462586080  0.6875335442706639  0.1874820540953649
  0.8128173431444905  0.6877008732035066  0.6877008764226652
  0.2499554928862493 -0.0000005835142812 -0.0000005822093537
  0.2499324305723112 -0.0000047190861395  0.4999951058724493
  0.2499324300441957  0.4999951058552662 -0.0000047210928866
  0.2497036052659503  0.4999494435623752  0.4999494396959540
  0.7500135030956141  0.0000392960278395  0.0000392949987304
  0.7500347129368100  0.0000545786554778  0.4999828806491406
  0.7500347108214482  0.4999828810701021  0.0000545775009461
  0.7500913357520343  0.5001676080999164  0.5001676091263346
  0.3749545517517591  0.1249448939632686  0.0000516563406798
  0.3749203620254524  0.1249405282767931  0.5000142195201976
  0.3749738446828957  0.6250261553189955  0.0000011882241445
  0.3745119771066771  0.6254880183279823  0.4998285722578950
  0.8749961088242839  0.1250038928645596  0.0000295054867537
  0.8751006017315504  0.1248993999965066  0.5000247189946453
  0.8750551052237153  0.6250454455115498  0.0000516563318263
  0.8750594726692662  0.6250796372705761  0.5000142205488400
  0.3749545522246157  0.0000516558950088  0.1249448934587759
  0.3749738451538838  0.0000011895299743  0.6250261567055373
  0.3749203633449838  0.5000142209138597  0.1249405261513261
  0.3745119859670257  0.4998285677016268  0.6254880059265284
  0.8749961084208975  0.0000295061391699  0.1250038919290310
  0.8750551065751595  0.0000516575891019  0.6250454481975479
  0.8751006005703529  0.5000247191251915  0.1248994011060364
  0.8750594718178594  0.5000142188570302  0.6250796370693583
  0.2499445248616616  0.1250048169334520  0.1250048159792499
  0.2498190560158662  0.1247892944935935  0.6250716078296670
  0.2498190577598512  0.6250716114057608  0.1247892914305837
  0.2500979522659300  0.6249137088755838  0.6249137089069793
  0.7500165688371369  0.1250744636719506  0.1250744625896175
  0.7500755129743611  0.1249274317608793  0.6250499580234310
  0.7500755099913190  0.6250499580435013  0.1249274340987267
  0.7503723501871021  0.6252711248414295  0.6252711329090778
  0.3124434368205002  0.0624368160902441  0.3124094495115347
  0.3123941675043144  0.0623784618633839  0.8126184632164882
  0.3109365244664436  0.5628053908845694  0.3110824400312127
  0.3124864558570483  0.5624725370112039  0.8124845091802348
  0.8124345650240025  0.0626350933563545  0.3124581583716199
  0.8125487647552221  0.0625395133810280  0.8125840586893105
  0.8126185295998418  0.5625817900373935  0.3124080365123471
  0.8131275454335917  0.5625960718421494  0.8131432458000986
  0.4374182145006334  0.1873814696591776  0.3124080258078020
  0.4374039274017945  0.1868724554861029  0.8131432434676434
  0.4371946128238163  0.6890634699253242  0.3110824511052367
  0.4375274578215606  0.6875135392100391  0.8124845134874330
  0.9373649079723985  0.1875654358951559  0.3124581575323567
  0.9374604870834563  0.1874512366336023  0.8125840593096980
  0.9375631825661601  0.6875565681409360  0.3124094534818518
  0.9376215389797995  0.6876058291224698  0.8126184624653545
  0.4374795007893063  0.0625136479851799  0.4374901049477579
  0.4374377469171751  0.0623221953579821  0.9376871054372035
  0.4336628743834389  0.5663371238422722  0.4315513989956644
  0.4374848804876376  0.5625151164300477  0.9375139555912927
  0.9375070444068534  0.0624929578854438  0.4374330607396475
  0.9375008388234907  0.0624991602125894  0.9375299204402346
  0.9374863529704714  0.5625205003863918  0.4374901036139878
  0.9376778044414532  0.5625622525431299  0.9376871041550621
  0.3123269315791814  0.1873169805641628  0.4374752908083734
  0.3124103054916559  0.1874055792088276  0.9376109822503805
  0.3120677831997994  0.6879322152349163  0.4373560194044279
  0.3124582618744683  0.6875417357691479  0.9375194033776447
  0.8126659805709582  0.1873340206660981  0.4374674796502099
  0.8125097803306424  0.1874902217873682  0.9375558292778535
  0.8126830189736977  0.6876730747460190  0.4374753012995360
  0.8125944192104212  0.6875896914598290  0.9376109816558760
  0.2499043137693127  0.0000472113305570  0.2499039311682043
  0.2499056945261423 -0.0000737249425131  0.7500943044648609
  0.2490321405950825  0.4999726749625798  0.2490496185759074
  0.2496924994000582  0.4999131354283179  0.7503074943402782
  0.7500572255676984  0.0001134883873655  0.2499427755426140
  0.7500960682793406  0.0000472122911309  0.7500956878500158
  0.7502790622224654  0.5001194485051973  0.2497209423596877
  0.7509503754283168  0.4999726727891674  0.7509678643978749
  0.3749500415943640  0.1249274317081000  0.2499244849856986
  0.3749283871083022  0.1247892935026880  0.7501809419190640
  0.3747288735463994  0.6252711296842838  0.2496276540653797
  0.3750862895690707  0.6249137056653691  0.7499020460404574
  0.8749255370315796  0.1250744639873936  0.2499834307731014
  0.8749951844963213  0.1250048164645477  0.7500554755816000
  0.8750725668426667  0.6250499598705609  0.2499244914252249
  0.8752107083566619  0.6250716093252819  0.7501809438154002
  0.3749768738000530  0.0000137137773136  0.3749711087260349
  0.3749470834496185 -0.0000652308651437  0.8750553381308911
  0.3728333960018361  0.5001329469318816  0.3729252222716068
  0.3749481691552928  0.4999980965696044  0.8750501547879584
  0.8749340370520451  0.0001290306473268  0.3749237782242587
  0.8750259264789713  0.0000107816465151  0.8750343274000296
  0.8749699089404295  0.5000166306911010  0.3749977211243262
  0.8753624925575610  0.4999342972875297  0.8754018475252847
  0.2499091303015543  0.1248720595224498  0.3749144768773025
  0.2499398777831782  0.1249504944307037  0.8750652790674438
  0.2496107306451047  0.6252341345239727  0.3748210442607892
  0.2499945612685786  0.6250105533489573  0.8750047851242800
  0.7499008985985903  0.1251159700625133  0.3749986236477048
  0.7500365244761937  0.1250169659257628  0.8750608301013788
  0.7501697948829259  0.6250987637164385  0.3749386253685674
  0.7501400331296131  0.6250589581919204  0.8751912627757877
  0.3124434345984869  0.3124094515617847  0.0624368149797777
  0.3109365248509635  0.3110824425872395  0.5628053810615808
  0.3123941698154846  0.8126184626070218  0.0623784614966488
  0.3124864569449554  0.8124845106247792  0.5624725419456584
  0.8124345654921959  0.3124581594079253  0.0626350922168088
  0.8126185308667285  0.3124080317060086  0.5625817890081952
  0.8125487634424289  0.8125840569886175  0.0625395123281238
  0.8131275488829337  0.8131432488983574  0.5625960787101119
  0.4374795006325409  0.4374901041429652  0.0625136467464334
  0.4336628785082478  0.4315513906554528  0.5663371113957781
  0.4374377472808367  0.9376871036949020  0.0623221970130934
  0.4374848807680434  0.9375139548723072  0.5625151185921093
  0.9375070433708812  0.4374330623521384  0.0624929560740481
  0.9374863520478497  0.4374901031547016  0.5625204994467954
  0.9375008392987172  0.9375299202431389  0.0624991596591674
  0.9376778078298708  0.9376871086237628  0.5625622549612410
  0.4374182124639066  0.3124080328692130  0.1873814661832679
  0.4371946088257904  0.3110824415168872  0.6890634707709323
  0.4374039296770645  0.8131432418607100  0.1868724595730626
  0.4375274596797191  0.8124845113024038  0.6875135466861660
  0.9373649079304701  0.3124581596177819  0.1875654348513682
  0.9375631827790498  0.3124094518881927  0.6875565677904212
  0.9374604864518226  0.8125840582011183  0.1874512348761553
  0.9376215412101512  0.8126184624402981  0.6876058323784657
  0.3123269285952063  0.4374752962155443  0.1873169761293208
  0.3120677902316126  0.4373560198479663  0.6879322055953652
  0.3124103066384424  0.9376109813964710  0.1874055789114617
  0.3124582628481879  0.9375194038922746  0.6875417381524387
  0.8126659785272563  0.4374674813565338  0.1873340222193873
  0.8126830187848955  0.4374752966360024  0.6876730727031964
  0.8125097791959298  0.9375558294266801  0.1874902204753456
  0.8125944214772418  0.9376109828909017  0.6875896949089636
  0.2499043121200303  0.2499039335880799  0.0000472098481886
  0.2490321398060573  0.2490496258533542  0.4999726615346074
  0.2499056957094023  0.7500943039501580 -0.0000737253443949
  0.2496924959438151  0.7503075034155967  0.4999131371626898
  0.7500572258067967  0.2499427756420947  0.0001134880713820
  0.7502790644722733  0.2497209383946738  0.5001194454494393
  0.7500960660187631  0.7500956858144400  0.0000472117826475
  0.7509503793113173  0.7509678624748176  0.4999726868277123
  0.3749768726914196  0.3749711093008491  0.0000137138377798
  0.3728333899362457  0.3729252250981016  0.5001329255905084
  0.3749470846498706  0.8750553379589077 -0.0000652307535991
  0.3749481703181843  0.8750501540127069  0.4999980993142556
  0.8749340361999906  0.3749237795168016  0.0001290284804248
  0.8749699068398611  0.3749977207260390  0.5000166303349809
  0.8750259256006335  0.8750343268463860  0.0000107814236960
  0.8753624952163706  0.8754018502552073  0.4999343020862676
  0.3749500408784622  0.2499244882726718  0.1249274298550477
  0.3747288685039786  0.2496276540876251  0.6252711233464711
  0.3749283894942376  0.7501809438625540  0.1247892937798708
  0.3750862908238868  0.7499020449794828  0.6249137116367283
  0.8749255368167890  0.2499834324539125  0.1250744631423514
  0.8750725688333270  0.2499244877865749  0.6250499602047375
  0.8749951835602235  0.7500554742921044  0.1250048157038012
  0.8752107099449320  0.7501809424454552  0.6250716143280657
  0.2499091277312399  0.3749144806024754  0.1248720567870369
  0.2496107336642446  0.3748210435578573  0.6252341283505545
  0.2499398794202284  0.8750652772697234  0.1249504948462462
  0.2499945614962368  0.8750047860857005  0.6250105560280719
  0.7499008994914026  0.3749986252804494  0.1251159689773294
  0.7501697958817700  0.3749386205342192  0.6250987600037481
  0.7500365231687555  0.8750608303013379  0.1250169642518243
  0.7501400345528130  0.8751912656043680  0.6250589621166407
  0.3124762531730092  0.3125008182448155  0.3125008138077481
  0.3122639684722162  0.3123667190862175  0.8128175303357811
  0.3122639679230805  0.8128175306994305  0.3123667177791317
  0.3124872567268701  0.8124908021941308  0.8124908037962527
  0.8121876213967801  0.3127228476023391  0.3127228475967113
  0.8125184969146666  0.3124642180771205  0.8125408289038876
  0.8125184967596778  0.8125408295563202  0.3124642176987300
  0.8125703495547318  0.8125732056803834  0.8125732073409118
  0.4371153897073488  0.4377224631558151  0.3122236805941777
  0.4374214592797109  0.4374219049118851  0.8126551027868920
  0.4374989594977722  0.9375602222999307  0.3124440084940141
  0.4374789768156720  0.9375087632303726  0.8125365352346146
  0.9374564720794353  0.4375067694987714  0.3125028885664958
  0.9375718688360597  0.4374617608514938  0.8126034805357666
  0.9374133859546971  0.9376054594159200  0.3124545912616642
  0.9375355775645242  0.9375365587346085  0.8125441358412520
  0.4371153928112149  0.3122236839507219  0.4377224525704488
  0.4374989572121364  0.3124440074300462  0.9375602240114568
  0.4374214623175369  0.8126550991822689  0.4374219112002726
  0.4374789768752670  0.8125365335733685  0.9375087638601436
  0.9374564716364132  0.3125028882143588  0.4375067706577493
  0.9374133860709449  0.3124545937072462  0.9376054574814214
  0.9375718695212533  0.8126034849191712  0.4374617612142518
  0.9375355777960578  0.8125441342246825  0.9375365607205152
  0.3122071074180064  0.4375012273981664  0.4375012141671152
  0.3124446585927312  0.4374879362386518  0.9375423125981582
  0.3124446601398849  0.9375423124285417  0.4374879378795657
  0.3124099861136080  0.9374957343009267  0.9374957348502806
  0.8124703090139058  0.4376015096277911  0.4376015088279070
  0.8125598004621610  0.4374587030346233  0.9376241028953228
  0.8125598034988893  0.9376241040920613  0.4374587045784092
  0.8125360566166049  0.9375539633444713  0.9375539628510211
  0.2499912506162972  0.2499936570770051  0.2499936536407581
  0.2499036094263108  0.2499103174587848  0.7500963895208310
  0.2499036097286147  0.7500963880770891  0.2499103161875462
  0.2500555367934911  0.7499444619676690  0.7499444638796483
  0.7498552880278797  0.2501447136430816  0.2501447115298517
  0.7500063455210526  0.2499936562792373  0.7500087507863491
  0.7500063442163633  0.7500087509373242  0.2499936554499991