SiVH3                                   
   1.00000000000000     
    10.9404879857440527    0.0000000000000000    0.0000000000000000
     0.0000000000000000   10.9404879857440527    0.0000000000000000
     0.0000000000000000    0.0000000000000000   10.9404879857440527
   Si   H 
    63     3
Direct
  0.1242119416253473  0.1238777652680554  0.1243758566212776
  0.3747752294754676  0.3744415114388673  0.1250354909967086
  0.3747685621007477  0.1245444269231157  0.3749491827025508
  0.1248664954315544  0.3744503278941167  0.3749290933498060
  0.9990064553778240  0.9986787687691745  0.9991734948641735
  0.2494904183874311  0.2491417565070009  0.0003144060469822
  0.2494795634471103  0.9998203122481399  0.2496552412705952
  0.0001482184848598  0.2491530397689914  0.2496396815113258
  0.1244252285160670  0.1240934674204794  0.6249789239969274
  0.3679219935686078  0.3676490917406952  0.6356676730244715
  0.3741685712412064  0.1225513777004679  0.8765394446413808
  0.1228476290148848  0.3738191036907565  0.8765962559781926
  0.9996766322110844  0.9992884127587587  0.5000890374764424
  0.2492165434412925  0.2489068329017314  0.4999538017640930
  0.2492595883958018  0.9989795959478087  0.7500863812159508
  0.9993110444652800  0.2489174776512826  0.7501044794166134
  0.1244045940888228  0.6244904986798119  0.1245732420212704
  0.3741509425892033  0.8760999581399460  0.1230108671663501
  0.3679714533886838  0.6351494995104261  0.3680607051640123
  0.1229013131635384  0.8760349799300471  0.3743363183931336
  0.9996197269472162  0.4995920664590940  0.9998197863303773
  0.2492445861561023  0.7496118824397158  0.9994719954365863
  0.2492065098602865  0.4994619729327781  0.2493594761329945
  0.9993116646297509  0.7495997605596330  0.2494257311620913
  0.1239438777333888  0.6237560602570156  0.6242651573179572
  0.3737548871132290  0.8744726933330682  0.6243901439523896
  0.3737346403123638  0.6238967827791342  0.8749829553635067
  0.1236413378164940  0.8735196441350226  0.8739985500323826
  0.9991283421094579  0.4988899810929439  0.4993881727476861
  0.2459927530324464  0.7523789291320213  0.4996425330187790
  0.2459179631843540  0.4991373628637632  0.7529555075886449
  0.9984397824671376  0.7483883814763956  0.7488739151086747
  0.6248086462092957  0.1241066528945538  0.1245996700749572
  0.8763759507309103  0.3738369041344924  0.1230502561332258
  0.8764392065935027  0.1224982190579880  0.3743131889166449
  0.6355208296988764  0.3675900663885443  0.3681616235627558
  0.4999249001092707  0.9993410418294602  0.9998016500401121
  0.7499207597161899  0.2489315221719366  0.9994800118322331
  0.7499307443746304  0.9989774018266147  0.2494127307998184
  0.4997860769634386  0.2489069888316067  0.2494140308726571
  0.6241031737897487  0.1236074948128305  0.6242561946445520
  0.8748184461539452  0.3734015951648786  0.6243879448351919
  0.8738352455303371  0.1233176708929662  0.8740161118866752
  0.6242209951880682  0.3734214130838112  0.8749725359811009
  0.4992231832898213  0.9987981640364580  0.4993864254726361
  0.7528044132449594  0.2455681772022871  0.4996332232635154
  0.7487143299179735  0.9981087376656959  0.7488896339120075
  0.4994781813747196  0.2456428257261862  0.7528923019478526
  0.6240924821560441  0.6237665526575142  0.1241068389354467
  0.8738451477049978  0.8735081101902864  0.1238101775538496
  0.8748086772227381  0.6238979686906561  0.3739179629457752
  0.6242183720530647  0.8744823503063941  0.3739002040318411
  0.4992182400828824  0.4988947692539938  0.9992944968484920
  0.7487232157891199  0.7483782274304360  0.9986050761623915
  0.7527322718831400  0.4991473714126400  0.2461438042110728
  0.4994664534431479  0.7524521727575220  0.2460781318948904
  0.6288760405174685  0.6285532667259872  0.6290449167528607
  0.8741430144361644  0.8738190281468974  0.6237898963743973
  0.8741426201251841  0.6232915777750136  0.8742966994357459
  0.6236275090977017  0.8738158695720770  0.8743234926709462
  0.7489649580897577  0.7486479397579942  0.4983032285373667
  0.7489698783081735  0.4978030279463397  0.7491241907360333
  0.4981409854804042  0.7486408168749392  0.7491488347197262
  0.4513627630635995  0.4512575740390261  0.5676485036481367
  0.4515646574179684  0.5670392912350621  0.4514337483568198
  0.5675621194656983  0.4510336391566199  0.4518215171939346
 
  0.00000000E+00  0.00000000E+00  0.00000000E+00
  0.00000000E+00  0.00000000E+00  0.00000000E+00
  0.00000000E+00  0.00000000E+00  0.00000000E+00
  0.00000000E+00  0.00000000E+00  0.00000000E+00
  0.00000000E+00  0.00000000E+00  0.00000000E+00
  0.00000000E+00  0.00000000E+00  0.00000000E+00
  0.00000000E+00  0.00000000E+00  0.00000000E+00
  0.00000000E+00  0.00000000E+00  0.00000000E+00
  0.00000000E+00  0.00000000E+00  0.00000000E+00
  0.00000000E+00  0.00000000E+00  0.00000000E+00
  0.00000000E+00  0.00000000E+00  0.00000000E+00
  0.00000000E+00  0.00000000E+00  0.00000000E+00
  0.00000000E+00  0.00000000E+00  0.00000000E+00
  0.00000000E+00  0.00000000E+00  0.00000000E+00
  0.00000000E+00  0.00000000E+00  0.00000000E+00
  0.00000000E+00  0.00000000E+00  0.00000000E+00
  0.00000000E+00  0.00000000E+00  0.00000000E+00
  0.00000000E+00  0.00000000E+00  0.00000000E+00
  0.00000000E+00  0.00000000E+00  0.00000000E+00
  0.00000000E+00  0.00000000E+00  0.00000000E+00
  0.00000000E+00  0.00000000E+00  0.00000000E+00
  0.00000000E+00  0.00000000E+00  0.00000000E+00
  0.00000000E+00  0.00000000E+00  0.00000000E+00
  0.00000000E+00  0.00000000E+00  0.00000000E+00
  0.00000000E+00  0.00000000E+00  0.00000000E+00
  0.00000000E+00  0.00000000E+00  0.00000000E+00
  0.00000000E+00  0.00000000E+00  0.00000000E+00
  0.00000000E+00  0.00000000E+00  0.00000000E+00
  0.00000000E+00  0.00000000E+00  0.00000000E+00
  0.00000000E+00  0.00000000E+00  0.00000000E+00
  0.00000000E+00  0.00000000E+00  0.00000000E+00
  0.00000000E+00  0.00000000E+00  0.00000000E+00
  0.00000000E+00  0.00000000E+00  0.00000000E+00
  0.00000000E+00  0.00000000E+00  0.00000000E+00
  0.00000000E+00  0.00000000E+00  0.00000000E+00
  0.00000000E+00  0.00000000E+00  0.00000000E+00
  0.00000000E+00  0.00000000E+00  0.00000000E+00
  0.00000000E+00  0.00000000E+00  0.00000000E+00
  0.00000000E+00  0.00000000E+00  0.00000000E+00
  0.00000000E+00  0.00000000E+00  0.00000000E+00
  0.00000000E+00  0.00000000E+00  0.00000000E+00
  0.00000000E+00  0.00000000E+00  0.00000000E+00
  0.00000000E+00  0.00000000E+00  0.00000000E+00
  0.00000000E+00  0.00000000E+00  0.00000000E+00
  0.00000000E+00  0.00000000E+00  0.00000000E+00
  0.00000000E+00  0.00000000E+00  0.00000000E+00
  0.00000000E+00  0.00000000E+00  0.00000000E+00
  0.00000000E+00  0.00000000E+00  0.00000000E+00
  0.00000000E+00  0.00000000E+00  0.00000000E+00
  0.00000000E+00  0.00000000E+00  0.00000000E+00
  0.00000000E+00  0.00000000E+00  0.00000000E+00
  0.00000000E+00  0.00000000E+00  0.00000000E+00
  0.00000000E+00  0.00000000E+00  0.00000000E+00
  0.00000000E+00  0.00000000E+00  0.00000000E+00
  0.00000000E+00  0.00000000E+00  0.00000000E+00
  0.00000000E+00  0.00000000E+00  0.00000000E+00
  0.00000000E+00  0.00000000E+00  0.00000000E+00
  0.00000000E+00  0.00000000E+00  0.00000000E+00
  0.00000000E+00  0.00000000E+00  0.00000000E+00
  0.00000000E+00  0.00000000E+00  0.00000000E+00
  0.00000000E+00  0.00000000E+00  0.00000000E+00
  0.00000000E+00  0.00000000E+00  0.00000000E+00
  0.00000000E+00  0.00000000E+00  0.00000000E+00
  0.00000000E+00  0.00000000E+00  0.00000000E+00
  0.00000000E+00  0.00000000E+00  0.00000000E+00
  0.00000000E+00  0.00000000E+00  0.00000000E+00
