GaN_ON                                  
1.0
       15.8909244537         0.0000000000         0.0000000000
        0.0000000000        16.5143318176         0.0000000000
        0.0000000000         0.0000000000        15.4982528687
   Ga    N    O    H
  180  179    1    1
Direct
     0.099924922         0.055497330         0.332919270
     0.099961363         0.055490900         0.666359842
     0.099959418         0.055522494         0.999632120
     0.099656679         0.388632178         0.332875550
     0.099688284         0.388658166         0.666618407
     0.099860944         0.388777226         0.999664247
     0.099834830         0.722292244         0.332902312
     0.099918589         0.722241640         0.666482031
     0.099917442         0.722258389         0.999687433
     0.299952835         0.055553153         0.332908869
     0.299960881         0.055566136         0.666409194
     0.299977094         0.055542991         0.999634862
     0.299331874         0.388348043         0.332605362
     0.299556226         0.388568461         0.666961730
     0.299910039         0.388745546         0.999811590
     0.299967408         0.722878814         0.332601815
     0.300059646         0.722576797         0.666927993
     0.299944758         0.722312391         0.999808371
     0.500047147         0.055553153         0.332908869
     0.500039101         0.055566136         0.666409194
     0.500022888         0.055542991         0.999634862
     0.500668168         0.388348043         0.332605362
     0.500443757         0.388568461         0.666961730
     0.500090003         0.388745546         0.999811590
     0.500032604         0.722878814         0.332601815
     0.499940366         0.722576797         0.666927993
     0.500055254         0.722312391         0.999808371
     0.700075090         0.055497330         0.332919270
     0.700038612         0.055490900         0.666359842
     0.700040579         0.055522494         0.999632120
     0.700343311         0.388632178         0.332875550
     0.700311720         0.388658166         0.666618407
     0.700139046         0.388777226         0.999664247
     0.700165153         0.722292244         0.332902312
     0.700081408         0.722241640         0.666482031
     0.700082541         0.722258389         0.999687433
     0.899999976         0.055509176         0.332950741
     0.899999976         0.055499274         0.666345298
     0.899999976         0.055528119         0.999641418
     0.899999976         0.388747811         0.332894325
     0.899999976         0.388777226         0.666414917
     0.899999976         0.388797849         0.999635756
     0.899999976         0.722260714         0.332924604
     0.899999976         0.722240448         0.666385591
     0.899999976         0.722224891         0.999636054
     0.999905169         0.222081810         0.332917273
     0.999922991         0.222090706         0.666384518
     0.999953032         0.222137004         0.999637365
     0.999807656         0.555463493         0.332800299
     0.999894321         0.555487871         0.666448295
     0.999931574         0.555505693         0.999658048
     0.999950409         0.888914704         0.332942396
     0.999971449         0.888889551         0.666363239
     0.999977171         0.888899148         0.999641776
     0.199785233         0.221984923         0.332820773
     0.199855402         0.222064272         0.666469455
     0.199912727         0.222120285         0.999670923
     0.199303001         0.555135071         0.332607538
     0.199600056         0.555211782         0.666942954
     0.199867293         0.555525899         0.999818206
     0.199936956         0.889056027         0.332820714
     0.199984476         0.888948739         0.666436136
     0.199962571         0.888940752         0.999665201
     0.400000006         0.221967176         0.332901806
     0.400000006         0.222051442         0.666527808
     0.400000006         0.222092047         0.999702930
     0.400000006         0.555419326         0.327227473
     0.400000006         0.555413723         0.667220473
     0.400000006         0.555522680         0.000122139
     0.400000006         0.889213145         0.332872450
     0.400000006         0.889170766         0.666606367
     0.400000006         0.889001489         0.999651372
     0.600214779         0.221984923         0.332820773
     0.600144625         0.222064272         0.666469455
     0.600087285         0.222120285         0.999670923
     0.600697041         0.555135071         0.332607538
     0.600399971         0.555211782         0.666942954
     0.600132763         0.555525899         0.999818206
     0.600063086         0.889056027         0.332820714
     0.600015521         0.888948739         0.666436136
     0.600037456         0.888940752         0.999665201
     0.800094843         0.222081810         0.332917273
     0.800077021         0.222090706         0.666384518
     0.800046980         0.222137004         0.999637365
     0.800192356         0.555463493         0.332800299
     0.800105691         0.555487871         0.666448295
     0.800068438         0.555505693         0.999658048
     0.800049603         0.888914704         0.332942396
     0.800028563         0.888889551         0.666363239
     0.800022840         0.888899148         0.999641776
     0.099890798         0.277703106         0.166224182
     0.099775024         0.277604491         0.499725699
     0.099941060         0.277724147         0.833091080
     0.099735759         0.611239970         0.166223168
     0.099378482         0.611154258         0.499752879
     0.099877506         0.611216068         0.833195329
     0.099924229         0.944521010         0.166248962
     0.099928953         0.944475949         0.499653757
     0.099959441         0.944487572         0.833018363
     0.299925178         0.277500600         0.166224599
     0.299732447         0.277130574         0.499789834
     0.299979657         0.277643383         0.833223760
     0.299602121         0.611342907         0.165974468
     0.295670807         0.613439798         0.501333475
     0.299951792         0.611146331         0.833557189
     0.299958527         0.944545925         0.166221201
     0.299996048         0.944640338         0.499724448
     0.299950570         0.944510520         0.833082795
     0.500074863         0.277500600         0.166224599
     0.500267565         0.277130574         0.499789834
     0.500020385         0.277643383         0.833223760
     0.500397861         0.611342907         0.165974468
     0.504329205         0.613439798         0.501333475
     0.500048220         0.611146331         0.833557189
     0.500041485         0.944545925         0.166221201
     0.500003994         0.944640338         0.499724448
     0.500049472         0.944510520         0.833082795
     0.700109184         0.277703106         0.166224182
     0.700224936         0.277604491         0.499725699
     0.700058937         0.277724147         0.833091080
     0.700264215         0.611239970         0.166223168
     0.700621486         0.611154258         0.499752879
     0.700122476         0.611216068         0.833195329
     0.700075746         0.944521010         0.166248962
     0.700071037         0.944475949         0.499653757
     0.700040519         0.944487572         0.833018363
     0.899999976         0.277748227         0.166263044
     0.899999976         0.277676165         0.499681681
     0.899999976         0.277764559         0.833028078
     0.899999976         0.611196220         0.166211382
     0.899999976         0.611160398         0.499658436
     0.899999976         0.611187935         0.833037376
     0.899999976         0.944520473         0.166282952
     0.899999976         0.944448233         0.499658078
     0.899999976         0.944502652         0.833002746
     0.999967992         0.111110806         0.166273937
     0.999953747         0.111036256         0.499661684
     0.999982834         0.111113332         0.833008945
     0.999902844         0.444429964         0.166217610
     0.999831915         0.444312841         0.499725550
     0.999926388         0.444472462         0.833090127
     0.999912798         0.777902186         0.166262388
     0.999922097         0.777849376         0.499677539
     0.999946594         0.777871251         0.833030760
     0.199939400         0.111050881         0.166229546
     0.199904114         0.111019515         0.499664605
     0.199966013         0.111080468         0.833040595
     0.199763119         0.444315493         0.166173756
     0.199333549         0.443996578         0.500293374
     0.199896857         0.444406062         0.833349407
     0.199785680         0.777983487         0.166227654
     0.199630722         0.778239369         0.499753594
     0.199888453         0.777869344         0.833186328
     0.400000006         0.111020073         0.166255295
     0.400000006         0.111017697         0.499700814
     0.400000006         0.111056022         0.833052874
     0.400000006         0.443963110         0.165972993
     0.400000006         0.439537764         0.501334071
     0.400000006         0.444357991         0.833594501
     0.400000006         0.778064132         0.166166604
     0.400000006         0.778457463         0.500258446
     0.400000006         0.777899683         0.833326399
     0.600060642         0.111050881         0.166229546
     0.600095928         0.111019515         0.499664605
     0.600033998         0.111080468         0.833040595
     0.600236893         0.444315493         0.166173756
     0.600666463         0.443996578         0.500293374
     0.600103140         0.444406062         0.833349407
     0.600214362         0.777983487         0.166227654
     0.600369275         0.778239369         0.499753594
     0.600111604         0.777869344         0.833186328
     0.800032020         0.111110806         0.166273937
     0.800046265         0.111036256         0.499661684
     0.800017178         0.111113332         0.833008945
     0.800097167         0.444429964         0.166217610
     0.800168097         0.444312841         0.499725550
     0.800073624         0.444472462         0.833090127
     0.800087214         0.777902186         0.166262388
     0.800077915         0.777849376         0.499677539
     0.800053418         0.777871251         0.833030760
     0.099982686         0.055570971         0.125282839
     0.100022122         0.055517931         0.458580285
     0.100018084         0.055561662         0.791954458
     0.099954709         0.388882220         0.125336885
     0.100001305         0.388855636         0.458592504
     0.100035690         0.388940066         0.792124569
     0.099979371         0.722255647         0.125383109
     0.100219660         0.722059488         0.458629757
     0.100040264         0.722219646         0.792010248
     0.299998760         0.055583626         0.125289947
     0.300010204         0.055618290         0.458579749
     0.300004661         0.055562340         0.791980386
     0.299976289         0.388842642         0.125654802
     0.299851090         0.389452219         0.458458185
     0.300103903         0.388977855         0.792214513
     0.299977094         0.722263038         0.125660792
     0.300665885         0.721931577         0.458447844
     0.300039023         0.722074032         0.792171538
     0.500001252         0.055583626         0.125289947
     0.499989808         0.055618290         0.458579749
     0.499995351         0.055562340         0.791980386
     0.500023723         0.388842642         0.125654802
     0.500148892         0.389452219         0.458458185
     0.499896109         0.388977855         0.792214513
     0.500022948         0.722263038         0.125660792
     0.499334127         0.721931577         0.458447844
     0.499960989         0.722074032         0.792171538
     0.700017333         0.055570971         0.125282839
     0.699977875         0.055517931         0.458580285
     0.699981928         0.055561662         0.791954458
     0.700045288         0.388882220         0.125336885
     0.699998677         0.388855636         0.458592504
     0.699964285         0.388940066         0.792124569
     0.700020611         0.722255647         0.125383109
     0.699780345         0.722059488         0.458629757
     0.699959695         0.722219646         0.792010248
     0.899999976         0.055584401         0.125290379
     0.899999976         0.055502865         0.458600342
     0.899999976         0.055586249         0.791949928
     0.899999976         0.388879061         0.125284955
     0.899999976         0.388830841         0.458565265
     0.899999976         0.388921618         0.791983366
     0.899999976         0.722243547         0.125309929
     0.899999976         0.722162724         0.458591819
     0.899999976         0.722231388         0.791951239
     0.999978364         0.222226113         0.125284374
     0.999974728         0.222175762         0.458575279
     0.000007895         0.222252801         0.791970193
     0.999980807         0.555554628         0.125337780
     0.000065772         0.555417299         0.458516717
     0.000042599         0.555594385         0.791994333
     0.999996960         0.888918102         0.125302419
     0.000045743         0.888816535         0.458599061
     0.000015595         0.888900638         0.791952372
     0.199960053         0.222223207         0.125341311
     0.199938968         0.222327486         0.458531737
     0.200035110         0.222275734         0.792025864
     0.199949011         0.555571496         0.125669405
     0.200510070         0.555028200         0.458455116
     0.200132012         0.555611193         0.792183697
     0.200001389         0.888926923         0.125346273
     0.200183615         0.888822138         0.458532929
     0.200032622         0.888836503         0.791986525
     0.400000006         0.222206458         0.125392914
     0.400000006         0.222426340         0.458627760
     0.400000006         0.222273245         0.792050719
     0.400000006         0.555531323         0.126328632
     0.400000006         0.555520892         0.792172849
     0.400000006         0.888952315         0.125330970
     0.400000006         0.888838887         0.458587557
     0.400000006         0.888850093         0.792107165
     0.600039959         0.222223207         0.125341311
     0.600061059         0.222327486         0.458531737
     0.599964917         0.222275734         0.792025864
     0.600050986         0.555571496         0.125669405
     0.599489987         0.555028200         0.458455116
     0.599868000         0.555611193         0.792183697
     0.599998653         0.888926923         0.125346273
     0.599816442         0.888822138         0.458532929
     0.599967420         0.888836503         0.791986525
     0.800021648         0.222226113         0.125284374
     0.800025284         0.222175762         0.458575279
     0.799992144         0.222252801         0.791970193
     0.800019205         0.555554628         0.125337780
     0.799934268         0.555417299         0.458516717
     0.799957395         0.555594385         0.791994333
     0.800003111         0.888918102         0.125302419
     0.799954295         0.888816535         0.458599061
     0.799984396         0.888900638         0.791952372
     0.099961199         0.277715892         0.291926026
     0.099996753         0.277750790         0.625306606
     0.099998489         0.277752191         0.958688319
     0.100009277         0.611097753         0.292037666
     0.100217648         0.611004114         0.625250280
     0.100036226         0.611084223         0.958787978
     0.099992305         0.944378614         0.291935444
     0.100062095         0.944327354         0.625256777
     0.100015610         0.944405317         0.958634555
     0.300003052         0.277659774         0.292030543
     0.300043225         0.277881384         0.625281036
     0.300004184         0.277778327         0.958811522
     0.299880773         0.611086786         0.293045759
     0.300457776         0.610750437         0.625041246
     0.300081879         0.611041844         0.959126413
     0.299999267         0.944419682         0.291925281
     0.300020307         0.944394290         0.625299573
     0.299993098         0.944412649         0.958673120
     0.499996960         0.277659774         0.292030543
     0.499956787         0.277881384         0.625281036
     0.499995828         0.277778327         0.958811522
     0.500119269         0.611086786         0.293045759
     0.499542236         0.610750437         0.625041246
     0.499918133         0.611041844         0.959126413
     0.500000715         0.944419682         0.291925281
     0.499979705         0.944394290         0.625299573
     0.500006914         0.944412649         0.958673120
     0.700038791         0.277715892         0.291926026
     0.700003207         0.277750790         0.625306606
     0.700001478         0.277752191         0.958688319
     0.699990690         0.611097753         0.292037666
     0.699782312         0.611004114         0.625250280
     0.699963748         0.611084223         0.958787978
     0.700007677         0.944378614         0.291935444
     0.699937880         0.944327354         0.625256777
     0.699984372         0.944405317         0.958634555
     0.899999976         0.277746052         0.291928589
     0.899999976         0.277762085         0.625292003
     0.899999976         0.277757853         0.958633900
     0.899999976         0.611149430         0.291920632
     0.899999976         0.611099243         0.625242293
     0.899999976         0.611088455         0.958645761
     0.899999976         0.944408238         0.291957200
     0.899999976         0.944374323         0.625267208
     0.899999976         0.944417357         0.958630323
     0.999996424         0.111057594         0.291938931
     0.000017136         0.111052208         0.625274599
     0.000006785         0.111082509         0.958625972
     0.999974668         0.444428265         0.291922212
     0.000012776         0.444443613         0.625301600
     0.999990880         0.444438607         0.958679616
     0.000009469         0.777748942         0.291966856
     0.000064405         0.777691424         0.625265479
     0.000011096         0.777750552         0.958644748
     0.199987888         0.111023925         0.291917682
     0.200018078         0.111091636         0.625261843
     0.200002700         0.111086696         0.958653092
     0.199910909         0.444314569         0.292001963
     0.200006053         0.444362044         0.625553668
     0.200025827         0.444447398         0.958928823
     0.200004101         0.777710140         0.292041034
     0.200198874         0.777554095         0.625248075
     0.200038746         0.777718127         0.958780229
     0.400000006         0.111047171         0.291953385
     0.400000006         0.111111559         0.625291169
     0.400000006         0.111081541         0.958656132
     0.400000006         0.444165975         0.293047547
     0.400000006         0.444794744         0.625060499
     0.400000006         0.444494933         0.959149897
     0.400000006         0.777834177         0.292005986
     0.400000006         0.777722239         0.625524521
     0.400000006         0.777709842         0.958909512
     0.600012124         0.111023925         0.291917682
     0.599981964         0.111091636         0.625261843
     0.599997342         0.111086696         0.958653092
     0.600089133         0.444314569         0.292001963
     0.599994004         0.444362044         0.625553668
     0.599974215         0.444447398         0.958928823
     0.599995911         0.777710140         0.292041034
     0.599801123         0.777554095         0.625248075
     0.599961281         0.777718127         0.958780229
     0.800003588         0.111057594         0.291938931
     0.799982905         0.111052208         0.625274599
     0.799993217         0.111082509         0.958625972
     0.800025344         0.444428265         0.291922212
     0.799987257         0.444443613         0.625301600
     0.800009131         0.444438607         0.958679616
     0.799990535         0.777748942         0.291966856
     0.799935579         0.777691424         0.625265479
     0.799988925         0.777750552         0.958644748
     0.400000006         0.555477679         0.458587885
     0.350559235         0.528009236         0.438330710
