GaN                                     
    1.000000000000000     
    15.8909244537000003    0.0000000000000000    0.0000000000000000
     0.0000000000000000   16.5143318175999987    0.0000000000000000
     0.0000000000000000    0.0000000000000000   15.4982528686999999
   Ga   N    H 
   179   180     1
Direct
  0.1001742208044114  0.0556947641613207  0.3330950494041434
  0.1001780952285855  0.0555855656911642  0.6664098761812294
  0.1000791458369951  0.0555842588513617  0.9997855947707711
  0.1002592605482920  0.3889017664675873  0.3330470145549762
  0.1002740138380703  0.3888493910772088  0.6665240718682535
  0.1001651100078649  0.3888636687547758  0.9998733113018384
  0.1003301027534076  0.7222504923335560  0.3331021083338043
  0.1003359301052015  0.7222512397919185  0.6664713796131132
  0.1002108291701641  0.7222338547097825  0.9998140784941207
  0.3002733322957462  0.0556566717538302  0.3330830331002612
  0.3001012532507693  0.0554275367076000  0.6664390596793676
  0.3000709247561431  0.0555359549839890  0.9997876027587304
  0.3008189482196283  0.3889895070419631  0.3332296427586751
  0.3000986192245103  0.3887616811576703  0.6664094625605169
  0.3002179132732106  0.3888200660451983  0.9996765147060470
  0.3003137820012642  0.7221950867463784  0.3330427156404255
  0.3002936144358180  0.7222311915530779  0.6664541651146535
  0.3002029105325874  0.7221784196750547  0.9997646569457164
  0.5002040797253871  0.0555187711297626  0.3330832966951103
  0.5001769222944507  0.0553718281003228  0.6664721432733276
  0.5000630683815517  0.0555046668142119  0.9997706550097170
  0.5013087706530478  0.3891869100093652  0.3340215850575923
  0.5001014083756238  0.3884476393927360  0.6642714633290836
  0.5002824411957668  0.3888719639888512  0.9991250529490208
  0.5003623075746351  0.7221843317798534  0.3329454157464511
  0.5002809304642568  0.7224100569682201  0.6664696285899278
  0.5002298804503358  0.7221817821817572 -0.0003541633867408
  0.7001808016829960  0.0555724252141040  0.3330958564977687
  0.7002203140110579  0.0554205840933304  0.6664833396594889
  0.7001081581133659  0.0555551593110776  0.9997803801140782
  0.6991882603210878  0.3892498524680820  0.3340283286056452
  0.7004311941235100  0.3885113943079599  0.6642945550507953
  0.7000607459064001  0.3889136498998255  0.9991464368792493
  0.7002974410762477  0.7222159324800786  0.3329669606947219
  0.7004046792594683  0.7224396185284091  0.6664655070186647
  0.7002303952095990  0.7222190690603842  0.9996503030762413
  0.9000697341502296  0.0557173721621539  0.3331008837100657
  0.9002477650157387  0.0554873429818063  0.6664485472487993
  0.9000825866258030  0.0556112198825104  0.9998086486658753
  0.8997145438838222  0.3890583532511475  0.3332462037230730
  0.9004580426769911  0.3888314426489642  0.6664515776611866
  0.9001184418828437  0.3888918680702891  0.9997013023844368
  0.9003462076455685  0.7222497589333018  0.3330735079833591
  0.9003818311315782  0.7222882040509567  0.6664403467904516
  0.9002360962290251  0.7222755843115313  0.9997920409945789
  0.0000042025517433  0.2223741560125750  0.3331293750894999
  0.0001600599859673  0.2222255459071749  0.6663858922630317
  0.0000788547501339  0.2222415197189349  0.9998326827032006
  0.0002825183360185  0.5555556996562809  0.3330858583575206
  0.0003506254838267  0.5556053242349932  0.6665488946712408
  0.0002222766902119  0.5555591819225859  0.9998286859743308
  0.0002682931011850  0.8889912834848870  0.3330825070884889
  0.0003096912757552  0.8889108982025813  0.6664383051090357
  0.0001321917846027  0.8889446985140667  0.9997969794724767
  0.2003275705317845  0.2223434423037784  0.3331134235868462
  0.2001983004320664  0.2221978200834319  0.6663694567055917
  0.2001114495543863  0.2222169013077980  0.9998158778170544
  0.2003320838306268  0.5555122223663930  0.3330712801846603
  0.2002881066186409  0.5555590826655347  0.6665319753326372
  0.2002142951988279  0.5554955081974869  0.9998137590563344
  0.2002671885386899  0.8889542626634894  0.3330742942581308
  0.2002242820066048  0.8888749459873787  0.6664414249179103
  0.2001189077062315  0.8888854425496074  0.9997888987277670
  0.4006296289615668  0.2224563427216036  0.3333052060034354
  0.4000613596254339  0.2218854847894411  0.6663346898181104
  0.4001110036780496  0.2221941481664837  0.9996462493261634
  0.4003314280817805  0.5554623021719334  0.3329501784546954
  0.4002299694660919  0.5555193817979416  0.6666544733513374
  0.4002622822733392  0.5554584240636590  0.9994913948751861
  0.4002599095717838  0.8888595533519887  0.3330458940123904
  0.4001975241670184  0.8888493547125849  0.6664301169429246
  0.4001180026164197  0.8888472019255759  0.9997742981099648
  0.6001726174578149  0.2221755705970392  0.3330832668529705
  0.6001844900336443  0.2219464884298985  0.6666105376403790
  0.6000973339050607  0.2222126753994601  0.9994194330809401
  0.6002968641202193  0.5550163775257229  0.3319261250508942
  0.6003144212110317  0.5558306109729586  0.6647608011609377
  0.6002407160595566  0.5553799645967125  0.9992652410652542
  0.6002737165171654  0.8888899237173422  0.3330495282873399
  0.6002779263971558  0.8888664523192258  0.6664522803228949
  0.6001488880530452  0.8888909911992533  0.9997559127701882
  0.7997184211786628  0.2225715144826007  0.3333335465263410
  0.8003065510712654  0.2219981285912879  0.6663597892498703
  0.8000741284981404  0.2222664568084733  0.9996716936050600
  0.8002796485440836  0.5555158331190075  0.3329787657192799
  0.8004167008096218  0.5555741721413865  0.6666751886556629
  0.8002132673136569  0.5555317743910486  0.9995099999344329
  0.8002670062435963  0.8889142918958074  0.3330624799897204
  0.8003346598186678  0.8889013289622255  0.6664216222038588
  0.8001563919101875  0.8889219536773907  0.9997907103050574
  0.1001293647017351  0.2778359804890604  0.1665070586247263
  0.1002147561187276  0.2778295416040266  0.4997916942515480
  0.1001381360880376  0.2777981249370079  0.8331335009441850
  0.1002629387723913  0.6111536754642299  0.1664611872103433
  0.1003541289194288  0.6113049710681405  0.4998291843387218
  0.1002728371315081  0.6111902754907614  0.8331775221395640
  0.1001767740151473  0.9445577465985422  0.1664405259586016
  0.1002776491085286  0.9446316650939709  0.4997499741727169
  0.1001671915416516  0.9445256034090697  0.8331105623707473
  0.3002588206043393  0.2778368369800543  0.1665215682547617
  0.3007215619789234  0.2779077286386836  0.4996612525881587
  0.3001179358801019  0.2777331098151624  0.8330336466617998
  0.3002855233355282  0.6110979902600050  0.1663363711792955
  0.3000897508157515  0.6112638705659094  0.4998324131040814
  0.3001941246913508  0.6111606065206184  0.8331547585185556
  0.3001827191254388  0.9445213640243740  0.1664319561204229
  0.3003010755142224  0.9443981489291989  0.4997453767031635
  0.3001254865725952  0.9444475336981475  0.8331283424183853
  0.5002262074637018  0.2779115506881583  0.1662497044841809
  0.5014486440704286  0.2780843366327451  0.5002434565383060
  0.5000376018031891  0.2776551390863853  0.8326460503370209
  0.5002734677002572  0.6111428936263151  0.1661560700665622
  0.4992057807282237  0.6110655190903456  0.5002081183939470
  0.5002287334970280  0.6111719382809799  0.8327938706684753
  0.5001673320602485  0.9444888920002721  0.1664146218207879
  0.5002847298662102  0.9442557337847172  0.4997651349499078
  0.5001402615075774  0.9444032934226562  0.8331181089174473
  0.7000112129602327  0.2779657565879466  0.1662607055104794
  0.6989302210627940  0.2781689721634228  0.5002677705877218
  0.7002220672110271  0.2777111731849288  0.8326579265595464
  0.7002505029512761  0.6111773628422937  0.1661746010462799
  0.7014652032415846  0.6110769211671669  0.5002166247292195
  0.7003184963670741  0.6112076220373439  0.8327960252137371
  0.7001795310910509  0.9445416043803696  0.1664324120662297
  0.7002469755706398  0.9443018803535455  0.4997650405797696
  0.7002006484651641  0.9444544807897364  0.8331151279204713
  0.9000102329868191  0.2779132923529364  0.1665388465382788
  0.8997135563826790  0.2779809816822129  0.4996967945870269
  0.9001694824454876  0.2778087737841821  0.8330710942206301
  0.9002343962217312  0.6111855186192950  0.1663752470752116
  0.9006061635344450  0.6113114710045300  0.4998450693934661
  0.9003548952329997  0.6112583557531353  0.8331665163382644
  0.9001566219810173  0.9445980533188769  0.1664533793629494
  0.9002388196959807  0.9444565061077108  0.4997509449010840
  0.9002024918126104  0.9445261980871219  0.8331276440887421
  0.0000838022728829  0.1112363972223323  0.1664764753820524
  0.0000986287690939  0.1112685703529864  0.4997449428258764
  0.0001297419569432  0.1111780786639607  0.8331067277206029
  0.0001200616420809  0.4444979554585091  0.1665070650238029
  0.0003137293070555  0.4447499892605327  0.4999718756436615
  0.0002670045361678  0.4445100031527066  0.8331841804426197
  0.0002661195078023  0.7778855284271653  0.1664521936821254
  0.0003644131280000  0.7779522928532847  0.4997633557024025
  0.0002837781347978  0.7778868251953162  0.8331326576470501
  0.2001399833608100  0.1112068888750045  0.1664638441009475
  0.2002967809145475  0.1112394035676799  0.4997382035023871
  0.2000946512562018  0.1111488817770803  0.8330981655662836
  0.2003151436825458  0.4444409891081671  0.1665027085806098
  0.2003106891631369  0.4447125101070440  0.4999516261704660
  0.2001948371201173  0.4444483190601140  0.8331571423348217
  0.2002553615808645  0.7778346228801551  0.1664325308090301
  0.2003360201946471  0.7779185702384055  0.4997623299223357
  0.2002399386824438  0.7778335079821858  0.8331257148895420
  0.4001709949024212  0.1112145978238033  0.1664692976030902
  0.4003528244109306  0.1108767703847632  0.4998444169237147
  0.4000627428559405  0.1110115990209742  0.8330848762612878
  0.4004517029042635  0.4444190471824730  0.1662456761027716
  0.4013422802651555  0.4452094657980216  0.5005478278392299
  0.4001765502930355  0.4443467079333233  0.8326670191143758
  0.4002423811607640  0.7778028337316972  0.1663670147624080
  0.4003926683958805  0.7776846209650620  0.4996850634177401
  0.4002027740888818  0.7778200784540071  0.8331241979338493
  0.6001115039359947  0.1112122764274317  0.1663689424614695
  0.6001975437838086  0.1107783143570220  0.4998338774728837
  0.6001119459478739  0.1109870283648337  0.8331225670397782
  0.6001974055099922  0.4443855358115631  0.1657511341838013
  0.6002117785450868  0.4442585321846159  0.8315460092366032
  0.6002605447601972  0.7778522496114947  0.1663278241898654
  0.6003392248563744  0.7776649789269642  0.4997785427352140
  0.6002666168439507  0.7778305886621972  0.8331007528467053
  0.8000515539321564  0.1113130273579561  0.1664911680258216
  0.8000343925554892  0.1109706640470582  0.4998638218187901
  0.8001598326781986  0.1111080941214755  0.8330997910787995
  0.7999718888822310  0.4444904877971197  0.1662720241473268
  0.7992794250319620  0.4452617658005497  0.5005672314535821
  0.8002732442543937  0.4444185342030681  0.8326983362296565
  0.8002635304424635  0.7778728161796404  0.1663976503020026
  0.8002921278519449  0.7777355401841832  0.4996815779712850
  0.8003179586953952  0.7778910865750371  0.8331203444844296
  0.1001042341319323  0.0556723747160708  0.1254495168970987
  0.1001891318966347  0.0557638507021178  0.4587566358060629
  0.1001089904775517  0.0556011347874284  0.7920798807730391
  0.1001946480336649  0.3889743774879263  0.1255513922897391
  0.1002948134010303  0.3889606477451825  0.4587402116607877
  0.1002153134090581  0.3889179106401983  0.7921550313645749
  0.1002434653445850  0.7222674969182339  0.1254612517215804
  0.1003483833370075  0.7223497939650486  0.4587563779619320
  0.1002570389810263  0.7222743418369639  0.7921267531426992
  0.3001294310960805  0.0556301020446213  0.1254462847674236
  0.3001905546987160  0.0555000678695866  0.4587344324520192
  0.3000319155911196  0.0554971865201265  0.7921010178190927
  0.3003139004041924  0.3889387532770218  0.1253830276327025
  0.3003279319799183  0.3891781159126549  0.4588962511875460
  0.3000341929618909  0.3888369294545074  0.7920555091988137
  0.3002413061346940  0.7222291860089143  0.1254159933416116
  0.3002975773352990  0.7222952787710748  0.4587083577249791
  0.3002322538346421  0.7222506320847722  0.7921052712503606
  0.5001120467558561  0.0555721936367543  0.1254105963013134
  0.5002214408102754  0.0552178677481825  0.4587354811346189
  0.5000907910969237  0.0554604912565750  0.7921242264111129
  0.5002536610689620  0.3889110264587975  0.1248218638835464
  0.4948033600148835  0.3856633695101815  0.4570462566275081
  0.4998479952141225  0.3886067372818791  0.7914530885638231
  0.5002617707635473  0.7222560458303259  0.1253157544917387
  0.5004896399666192  0.7218424756327824  0.4586609811363780
  0.5002334907554018  0.7223408681289819  0.7920563703248578
  0.7001369098179948  0.0556259666408934  0.1254218859267780
  0.7002039304919442  0.0552690245316153  0.4587462134059975
  0.7001714419336205  0.0555128453069219  0.7921306440546064
  0.7001587437466257  0.3889637678812730  0.1248392081414915
  0.7057910747556438  0.3857275755005103  0.4570523954094468
  0.7006042849074834  0.3886648948020470  0.7914713620347099
  0.7002692810956523  0.7222866809985586  0.1253289684984490
  0.7001946627518530  0.7218716986283576  0.4586773314448388
  0.7003201466220149  0.7223739221308138  0.7920519379258597
  0.9000724181451669  0.0557020391699945  0.1254661773558960
  0.9001886055374243  0.0555631266119120  0.4587519990740115
  0.9001855378071409  0.0555714272435346  0.7921011731357316
  0.9000990367739538  0.3890170274955528  0.1254059089211227
  0.9002832458726914  0.3892351967316224  0.4589146499547363
  0.9004182586666731  0.3889103826487822  0.7920990506179071
  0.9002621252246737  0.7223120732261384  0.1254395507690729
  0.9003955279256455  0.7223454871292780  0.4587312674160875
  0.9003005304675618  0.7223323415674646  0.7920962092289644
  0.0000649008458655  0.2223616632585504  0.1255037176670800
  0.0000515626256485  0.2224504184267629  0.4588083253589986
  0.0001729453237799  0.2222581450066868  0.7920671533101658
  0.0002408580180414  0.5556104239307442  0.1254801236944229
  0.0004571991073069  0.5557052774085347  0.4587550248573423
  0.0002979020254480  0.5556319763211062  0.7921771738496912
  0.0001613817315447  0.8889948718878152  0.1254551904556880
  0.0003051172902229  0.8890212557782569  0.4587335236418676
  0.0001962854443035  0.8889541241821156  0.7920963631684134
  0.2001743703223665  0.2223337002293989  0.1254931360672942
  0.2003526299750472  0.2224220709343390  0.4587924152979214
  0.2000867361051443  0.2222296846560060  0.7920497398597646
  0.2002467554561950  0.5555552855470592  0.1254658332554392
  0.2002326138484706  0.5556749493157378  0.4587428878845313
  0.2002284895100852  0.5555794531732724  0.7921638233058342
  0.2001644266197986  0.8889446104272551  0.1254417014156923
  0.2002349459255169  0.8889817252971914  0.4587259135492300
  0.2001400377274665  0.8889041001830750  0.7920995030085647
  0.4001856412794251  0.2222963860955645  0.1253259292974492
  0.4004095855726090  0.2218338682693917  0.4589167353644215
  0.3999699236881730  0.2220202321097720  0.7920181218745727
  0.4003106143945489  0.5555605664457015  0.1252094729402668
  0.3999923805423987  0.5558362732724478  0.4586223349925698
  0.4001828849414305  0.5556286396202457  0.7921654343207113
  0.4001611541736509  0.8889010242983778  0.1254247792389261
  0.4002895275211310  0.8887313977067880  0.4587030163578195
  0.4001239021539365  0.8888801688956075  0.7920843748823159
  0.6001289316638755  0.2222882566089545  0.1250884508904206
  0.6002147936440470  0.2214719768579486  0.4586799510404222
  0.6001465417410885  0.2220350428124151  0.7921925550046385
  0.6002679142662916  0.5556029412172272  0.1250257168973277
  0.6003469497571906  0.5574031668286301  0.4578953117447030
  0.6002808823209547  0.5558564564754858  0.7915214214936820
  0.6001862208049281  0.8889438651169081  0.1254032052079479
  0.6002843947116637  0.8886601859392909  0.4587111801622080
  0.6001908811031336  0.8889039180886950  0.7920955933252324
  0.8000615556631859  0.2223867753753976  0.1253446300814057
  0.7999939636087295  0.2219343653467979  0.4589450824335337
  0.8003123138147821  0.2221171214025856  0.7920435686000015
  0.8002173287901385  0.5556308441716522  0.1252293703933651
  0.8007021743373207  0.5558802125252535  0.4586385257073432
  0.8003838238652727  0.5556942209281935  0.7921861758719998
  0.8001912049946066  0.8889644501594076  0.1254403412180122
  0.8002573366334083  0.8887839411300149  0.4587137030544035
  0.8002366741665887  0.8889490092642066  0.7920763429274358
  0.1001741426356848  0.2777908465658739  0.2921694829082218
  0.1001912895794495  0.2777906110749877  0.6254217553282012
  0.1000986110538496  0.2777762359347953  0.9588166761869351
  0.1003151355326218  0.6111083933872445  0.2921219539745276
  0.1003320610547147  0.6111581874859873  0.6254694212656160
  0.1002306460086717  0.6111182608313518  0.9588274002769008
  0.1002650267929804  0.9445501120793521  0.2920945804432541
  0.1002740504948346  0.9444756569554009  0.6254064104291380
  0.1001378466253310  0.9444677318178454  0.9587742919260362
  0.3004013330075244  0.2778581195148646  0.2921958321409763
  0.3001909384284248  0.2777091706292303  0.6253535375590528
  0.3000892225971311  0.2777349990814189  0.9587154850000151
  0.3003355880581968  0.6110908004375246  0.2920104389700665
  0.3002618547159864  0.6111396485686597  0.6254643615053196
  0.3001989388022561  0.6110715768541901  0.9587842429671033
  0.3002840069832268  0.9444818173390342  0.2920857305537620
  0.3002114213080021  0.9443413175153320  0.6253946470574711
  0.3001181445788519  0.9444115067600403  0.9587819408181554
  0.5004525014473131  0.2779082912676645  0.2917495207071923
  0.5000910706147425  0.2769507845015932  0.6255845703045045
  0.5000710885061285  0.2777110020753298  0.9584121726331062
  0.5004209352948281  0.6110601496071593  0.2919391891553389
  0.5000000711064004  0.6113998700121857  0.6253264156620055
  0.5002438660159411  0.6110856937587068  0.9584960556100837
  0.5002470366891928  0.9443750368134735  0.2920547196897504
  0.5002428581018465  0.9442595603044307  0.6254150236854279
  0.5001120710812105  0.9443726672192730  0.9587665938805449
  0.6998694371768401  0.2779670772175134  0.2917609637308940
  0.7002630127286222  0.2770171090830403  0.6256040049316233
  0.7001163753817797  0.2777570975648549  0.9584242550899396
  0.7001710497237605  0.6110853788823355  0.2919588926064294
  0.7006347097826527  0.6114180704154651  0.6253437491096264
  0.7002221674680542  0.6111235154946234  0.9585001451576989
  0.7002661570675506  0.9444275237662357  0.2920707271438653
  0.7002883310242940  0.9443113859396773  0.6254194591822999
  0.7001525206484063  0.9444222337573189  0.9587673629236483
  0.8999579441927266  0.2779302864234750  0.2922151896597481
  0.9002051641695891  0.2777850336805209  0.6253852049249765
  0.9001182880739634  0.2777973858441839  0.9587516801085330
  0.9002757762834351  0.6111454437398574  0.2920354226517693
  0.9003877340420522  0.6111873879266154  0.6254788334586368
  0.9002619376511514  0.6111721425461495  0.9587974658905427
  0.9002295181278872  0.9445418544780622  0.2921092596259987
  0.9003205084014058  0.9444025395003365  0.6253967682511921
  0.9001398572321896  0.9444902746868635  0.9587856835476583
  0.0001300260898472  0.1112328826749584  0.2921302542719905
  0.0001852689321476  0.1111198676488192  0.6254000303441322
  0.0000889682805964  0.1111479852230475  0.9587796647862776
  0.0000951502554327  0.4444175314878118  0.2922008215258990
  0.0004284903562946  0.4445351688567302  0.6255023623887814
  0.0001894140878298  0.4444610984522864  0.9588447636755633
  0.0003305452286828  0.7778415933239582  0.2921040102909616
  0.0003736888900310  0.7778152941207606  0.6254176120495896
  0.0002312199832153  0.7778232791926790  0.9587890126201291
  0.2002163737283133  0.1112072491556998  0.2921158105940373
  0.2001799534397700  0.1110967155842692  0.6253925610309892
  0.2000819553810748  0.1111166761338220  0.9587718570602818
  0.2004477248630857  0.4443677553407271  0.2921950279345502
  0.2001494312422452  0.4444900827228254  0.6254833931328972
  0.2001679271816512  0.4444049250514313  0.9588172728150008
  0.2003303147599353  0.7778074623837894  0.2920872307139880
  0.2003191471398479  0.7777808727018549  0.6254185855761186
  0.2002080640413050  0.7777667737237295  0.9587810594987245
  0.4002640380100028  0.1112239868843403  0.2921088425196097
  0.4001235081226547  0.1107511221969665  0.6254610031381936
  0.4000636061325600  0.1110514290886514  0.9587496751752453
  0.4006864469698549  0.4445207150143040  0.2918318675630805
  0.3997350969812871  0.4446374785168306  0.6257020746060439
  0.4001491982279881  0.4443933769121703  0.9584379512595201
  0.4003435324022541  0.7777054307504729  0.2920445583076235
  0.4002763404386959  0.7777669380851481  0.6253393780157490
  0.4001972240630197  0.7777275412036971  0.9587587559933902
  0.6001765191050331  0.1110099506641899  0.2919947938093100
  0.6001905452456979  0.1108009864434993  0.6255028764978542
  0.6000755817933731  0.1110199182158046  0.9587513135287995
  0.6002365355782552  0.4445213623900552  0.2913931731228351
  0.6002567429951250  0.4442750656068022  0.6323757054490010
  0.6001693132599224  0.4444305919116335  0.9577479720176002
  0.6003212590608853  0.7777712847478631  0.2920096019473860
  0.6003335036159942  0.7777551029636289  0.6253938515537651
  0.6002193404788739  0.7777637444995390  0.9587376371877995
  0.8000902685377044  0.1113262203376400  0.2921368758973734
  0.8002521655520094  0.1108503069190042  0.6254799606109057
  0.8000966304921415  0.1111329164035997  0.9587644996110382
  0.7998292910226288  0.4445771882277338  0.2918467305014044
  0.8008243643974853  0.4446892151746921  0.6257318804064639
  0.8001932430549846  0.4444593992068289  0.9584683739402826
  0.8002965564081238  0.7777577399185470  0.2920774894862589
  0.8003939083475422  0.7778212130599818  0.6253376128320354
  0.8002389488076784  0.7778061216648341  0.9587596174906071
  0.6002854625026246  0.4983175316431186  0.4794999743937921
 
  0.00000000E+00  0.00000000E+00  0.00000000E+00
  0.00000000E+00  0.00000000E+00  0.00000000E+00
  0.00000000E+00  0.00000000E+00  0.00000000E+00
  0.00000000E+00  0.00000000E+00  0.00000000E+00
  0.00000000E+00  0.00000000E+00  0.00000000E+00
  0.00000000E+00  0.00000000E+00  0.00000000E+00
  0.00000000E+00  0.00000000E+00  0.00000000E+00
  0.00000000E+00  0.00000000E+00  0.00000000E+00
  0.00000000E+00  0.00000000E+00  0.00000000E+00
  0.00000000E+00  0.00000000E+00  0.00000000E+00
  0.00000000E+00  0.00000000E+00  0.00000000E+00
  0.00000000E+00  0.00000000E+00  0.00000000E+00
  0.00000000E+00  0.00000000E+00  0.00000000E+00
  0.00000000E+00  0.00000000E+00  0.00000000E+00
  0.00000000E+00  0.00000000E+00  0.00000000E+00
  0.00000000E+00  0.00000000E+00  0.00000000E+00
  0.00000000E+00  0.00000000E+00  0.00000000E+00
  0.00000000E+00  0.00000000E+00  0.00000000E+00
  0.00000000E+00  0.00000000E+00  0.00000000E+00
  0.00000000E+00  0.00000000E+00  0.00000000E+00
  0.00000000E+00  0.00000000E+00  0.00000000E+00
  0.00000000E+00  0.00000000E+00  0.00000000E+00
  0.00000000E+00  0.00000000E+00  0.00000000E+00
  0.00000000E+00  0.00000000E+00  0.00000000E+00
  0.00000000E+00  0.00000000E+00  0.00000000E+00
  0.00000000E+00  0.00000000E+00  0.00000000E+00
  0.00000000E+00  0.00000000E+00  0.00000000E+00
  0.00000000E+00  0.00000000E+00  0.00000000E+00
  0.00000000E+00  0.00000000E+00  0.00000000E+00
  0.00000000E+00  0.00000000E+00  0.00000000E+00
  0.00000000E+00  0.00000000E+00  0.00000000E+00
  0.00000000E+00  0.00000000E+00  0.00000000E+00
  0.00000000E+00  0.00000000E+00  0.00000000E+00
  0.00000000E+00  0.00000000E+00  0.00000000E+00
  0.00000000E+00  0.00000000E+00  0.00000000E+00
  0.00000000E+00  0.00000000E+00  0.00000000E+00
  0.00000000E+00  0.00000000E+00  0.00000000E+00
  0.00000000E+00  0.00000000E+00  0.00000000E+00
  0.00000000E+00  0.00000000E+00  0.00000000E+00
  0.00000000E+00  0.00000000E+00  0.00000000E+00
  0.00000000E+00  0.00000000E+00  0.00000000E+00
  0.00000000E+00  0.00000000E+00  0.00000000E+00
  0.00000000E+00  0.00000000E+00  0.00000000E+00
  0.00000000E+00  0.00000000E+00  0.00000000E+00
  0.00000000E+00  0.00000000E+00  0.00000000E+00
  0.00000000E+00  0.00000000E+00  0.00000000E+00
  0.00000000E+00  0.00000000E+00  0.00000000E+00
  0.00000000E+00  0.00000000E+00  0.00000000E+00
  0.00000000E+00  0.00000000E+00  0.00000000E+00
  0.00000000E+00  0.00000000E+00  0.00000000E+00
  0.00000000E+00  0.00000000E+00  0.00000000E+00
  0.00000000E+00  0.00000000E+00  0.00000000E+00
  0.00000000E+00  0.00000000E+00  0.00000000E+00
  0.00000000E+00  0.00000000E+00  0.00000000E+00
  0.00000000E+00  0.00000000E+00  0.00000000E+00
  0.00000000E+00  0.00000000E+00  0.00000000E+00
  0.00000000E+00  0.00000000E+00  0.00000000E+00
  0.00000000E+00  0.00000000E+00  0.00000000E+00
  0.00000000E+00  0.00000000E+00  0.00000000E+00
  0.00000000E+00  0.00000000E+00  0.00000000E+00
  0.00000000E+00  0.00000000E+00  0.00000000E+00
  0.00000000E+00  0.00000000E+00  0.00000000E+00
  0.00000000E+00  0.00000000E+00  0.00000000E+00
  0.00000000E+00  0.00000000E+00  0.00000000E+00
  0.00000000E+00  0.00000000E+00  0.00000000E+00
  0.00000000E+00  0.00000000E+00  0.00000000E+00
  0.00000000E+00  0.00000000E+00  0.00000000E+00
  0.00000000E+00  0.00000000E+00  0.00000000E+00
  0.00000000E+00  0.00000000E+00  0.00000000E+00
  0.00000000E+00  0.00000000E+00  0.00000000E+00
  0.00000000E+00  0.00000000E+00  0.00000000E+00
  0.00000000E+00  0.00000000E+00  0.00000000E+00
  0.00000000E+00  0.00000000E+00  0.00000000E+00
  0.00000000E+00  0.00000000E+00  0.00000000E+00
  0.00000000E+00  0.00000000E+00  0.00000000E+00
  0.00000000E+00  0.00000000E+00  0.00000000E+00
  0.00000000E+00  0.00000000E+00  0.00000000E+00
  0.00000000E+00  0.00000000E+00  0.00000000E+00
  0.00000000E+00  0.00000000E+00  0.00000000E+00
  0.00000000E+00  0.00000000E+00  0.00000000E+00
  0.00000000E+00  0.00000000E+00  0.00000000E+00
  0.00000000E+00  0.00000000E+00  0.00000000E+00
  0.00000000E+00  0.00000000E+00  0.00000000E+00
  0.00000000E+00  0.00000000E+00  0.00000000E+00
  0.00000000E+00  0.00000000E+00  0.00000000E+00
  0.00000000E+00  0.00000000E+00  0.00000000E+00
  0.00000000E+00  0.00000000E+00  0.00000000E+00
  0.00000000E+00  0.00000000E+00  0.00000000E+00
  0.00000000E+00  0.00000000E+00  0.00000000E+00
  0.00000000E+00  0.00000000E+00  0.00000000E+00
  0.00000000E+00  0.00000000E+00  0.00000000E+00
  0.00000000E+00  0.00000000E+00  0.00000000E+00
  0.00000000E+00  0.00000000E+00  0.00000000E+00
  0.00000000E+00  0.00000000E+00  0.00000000E+00
  0.00000000E+00  0.00000000E+00  0.00000000E+00
  0.00000000E+00  0.00000000E+00  0.00000000E+00
  0.00000000E+00  0.00000000E+00  0.00000000E+00
  0.00000000E+00  0.00000000E+00  0.00000000E+00
  0.00000000E+00  0.00000000E+00  0.00000000E+00
  0.00000000E+00  0.00000000E+00  0.00000000E+00
  0.00000000E+00  0.00000000E+00  0.00000000E+00
  0.00000000E+00  0.00000000E+00  0.00000000E+00
  0.00000000E+00  0.00000000E+00  0.00000000E+00
  0.00000000E+00  0.00000000E+00  0.00000000E+00
  0.00000000E+00  0.00000000E+00  0.00000000E+00
  0.00000000E+00  0.00000000E+00  0.00000000E+00
  0.00000000E+00  0.00000000E+00  0.00000000E+00
  0.00000000E+00  0.00000000E+00  0.00000000E+00
  0.00000000E+00  0.00000000E+00  0.00000000E+00
  0.00000000E+00  0.00000000E+00  0.00000000E+00
  0.00000000E+00  0.00000000E+00  0.00000000E+00
  0.00000000E+00  0.00000000E+00  0.00000000E+00
  0.00000000E+00  0.00000000E+00  0.00000000E+00
  0.00000000E+00  0.00000000E+00  0.00000000E+00
  0.00000000E+00  0.00000000E+00  0.00000000E+00
  0.00000000E+00  0.00000000E+00  0.00000000E+00
  0.00000000E+00  0.00000000E+00  0.00000000E+00
  0.00000000E+00  0.00000000E+00  0.00000000E+00
  0.00000000E+00  0.00000000E+00  0.00000000E+00
  0.00000000E+00  0.00000000E+00  0.00000000E+00
  0.00000000E+00  0.00000000E+00  0.00000000E+00
  0.00000000E+00  0.00000000E+00  0.00000000E+00
  0.00000000E+00  0.00000000E+00  0.00000000E+00
  0.00000000E+00  0.00000000E+00  0.00000000E+00
  0.00000000E+00  0.00000000E+00  0.00000000E+00
  0.00000000E+00  0.00000000E+00  0.00000000E+00
  0.00000000E+00  0.00000000E+00  0.00000000E+00
  0.00000000E+00  0.00000000E+00  0.00000000E+00
  0.00000000E+00  0.00000000E+00  0.00000000E+00
  0.00000000E+00  0.00000000E+00  0.00000000E+00
  0.00000000E+00  0.00000000E+00  0.00000000E+00
  0.00000000E+00  0.00000000E+00  0.00000000E+00
  0.00000000E+00  0.00000000E+00  0.00000000E+00
  0.00000000E+00  0.00000000E+00  0.00000000E+00
  0.00000000E+00  0.00000000E+00  0.00000000E+00
  0.00000000E+00  0.00000000E+00  0.00000000E+00
  0.00000000E+00  0.00000000E+00  0.00000000E+00
  0.00000000E+00  0.00000000E+00  0.00000000E+00
  0.00000000E+00  0.00000000E+00  0.00000000E+00
  0.00000000E+00  0.00000000E+00  0.00000000E+00
  0.00000000E+00  0.00000000E+00  0.00000000E+00
  0.00000000E+00  0.00000000E+00  0.00000000E+00
  0.00000000E+00  0.00000000E+00  0.00000000E+00
  0.00000000E+00  0.00000000E+00  0.00000000E+00
  0.00000000E+00  0.00000000E+00  0.00000000E+00
  0.00000000E+00  0.00000000E+00  0.00000000E+00
  0.00000000E+00  0.00000000E+00  0.00000000E+00
  0.00000000E+00  0.00000000E+00  0.00000000E+00
  0.00000000E+00  0.00000000E+00  0.00000000E+00
  0.00000000E+00  0.00000000E+00  0.00000000E+00
  0.00000000E+00  0.00000000E+00  0.00000000E+00
  0.00000000E+00  0.00000000E+00  0.00000000E+00
  0.00000000E+00  0.00000000E+00  0.00000000E+00
  0.00000000E+00  0.00000000E+00  0.00000000E+00
  0.00000000E+00  0.00000000E+00  0.00000000E+00
  0.00000000E+00  0.00000000E+00  0.00000000E+00
  0.00000000E+00  0.00000000E+00  0.00000000E+00