GaN_ONH                                 
    1.000000000000000     
    15.8909244537000003    0.0000000000000000    0.0000000000000000
     0.0000000000000000   16.5143318175999987    0.0000000000000000
     0.0000000000000000    0.0000000000000000   15.4982528686999999
   Ga   N    O    H 
   180   179     1     1
Direct
  0.0997586452911444  0.0555293904389497  0.3329970787826245
  0.0998620640089819  0.0555290824469350  0.6666110205233519
  0.0998542199456505  0.0555022601068371 -0.0002374124453038
  0.0994720406360841  0.3884552294924941  0.3330320037417487
  0.0992521012591240  0.3883784101805148  0.6670289783428216
  0.0996413262160911  0.3885461414829390 -0.0000062091022323
  0.0994924375516246  0.7223258143680744  0.3330418936444241
  0.0997276033547024  0.7223701914859639  0.6669027219685146
  0.0997233084190669  0.7223380786496794  0.0000250933147269
  0.2999112726236847  0.0555347789783730  0.3330579037861299
  0.2999401913739294  0.0556459718216832  0.6667049744273669
  0.2999285892929782  0.0555603125148112 -0.0001222804543530
  0.2988937885656742  0.3879470324278735  0.3320871249708220
  0.2986016252781308  0.3882557204168122  0.6683156810220749
  0.2996899728050068  0.3884312578977588 -0.0002735541723644
  0.2991439337860270  0.7232619335383264  0.3318839536563938
  0.2997831264774983  0.7235477832873938  0.6685278394483880
  0.2998273427236627  0.7226326290752828 -0.0002621444476004
  0.5000887093763177  0.0555347789783730  0.3330579037861299
  0.5000597606260706  0.0556459718216832  0.6667049744273669
  0.5000713627070221  0.0555603125148112 -0.0001222804543530
  0.5011062534343264  0.3879470324278735  0.3320871249708220
  0.5013983567218648  0.3882557204168122  0.6683156810220749
  0.5003100681949905  0.3884312578977588 -0.0002735541723644
  0.5008561072139773  0.7232619335383264  0.3318839536563938
  0.5002168845225032  0.7235477832873938  0.6685278394483880
  0.5001726692763426  0.7226326290752828 -0.0002621444476004
  0.7002413597088567  0.0555293904389497  0.3329970787826245
  0.7001378949910223  0.0555290824469350  0.6666110205233519
  0.7001457920543548  0.0555022601068371 -0.0002374124453038
  0.7005279413639114  0.3884552294924941  0.3330320037417487
  0.7007478817408754  0.3883784101805148  0.6670289783428216
  0.7003586927839045  0.3885461414829390 -0.0000062091022323
  0.7005075294483736  0.7223258143680744  0.3330418936444241
  0.7002723936452983  0.7223701914859639  0.6669027219685146
  0.7002766805809335  0.7223380786496794  0.0000250933147269
  0.8999999759999966  0.0554696967397327  0.3330461962521806
  0.8999999759999966  0.0554269568990450  0.6665345468676056
  0.8999999759999966  0.0554603224797958 -0.0002484830999858
  0.8999999759999966  0.3885568358127626  0.3330313098175063
  0.8999999759999966  0.3886092076202797  0.6667130500615620
  0.8999999759999966  0.3886605123585458 -0.0001339087867690
  0.8999999759999966  0.7222589475282820  0.3330983592653869
  0.8999999759999966  0.7222910264387432  0.6667353946959266
  0.8999999759999966  0.7222441072162015 -0.0001372605503408
  0.9998085377079271  0.2219655549753294  0.3330244541142482
 -0.0001692240441701  0.2219387731995928  0.6666246227023207
 -0.0001268300504123  0.2219967523408289 -0.0002161144829823
  0.9995908190661615  0.5553428089115354  0.3327860881940422
 -0.0004027064917291  0.5553728171107692  0.6669393848275962
  0.9997895913087816  0.5554095225248430 -0.0000162969739547
 -0.0001401614178017  0.8889794916124727  0.3330829692750105
 -0.0000791679259433  0.8889400423682864  0.6666342147300707
 -0.0001015456121959  0.8889203397608945 -0.0001847360514155
  0.1995416044818959  0.2217243588258964  0.3327468951438204
  0.1996433612136113  0.2218925844612089  0.6668063855638651
  0.1997718540600100  0.2219383619819964 -0.0001087146861199
  0.1990053192508117  0.5551393855819730  0.3321044689168741
  0.1983796246940695  0.5547579440379951  0.6689540387259092
  0.1994991118452070  0.5553816871461446  0.9996619254953161
  0.1997084103794103  0.8894319998100978  0.3328700635984419
  0.1998255442939862  0.8892658412712945  0.6668534887139043
  0.1998440602950516  0.8891165648654170 -0.0000654687843262
  0.4000000059999991  0.2217889438260573  0.3329358605274699
  0.4000000059999991  0.2220375518370841  0.6669347942565566
  0.4000000059999991  0.2218928802585333 -0.0000575961739619
  0.4000000059999991  0.5544222796880367  0.3167510019425946
  0.4000000059999991  0.5557307712655859  0.6672471540192804
  0.4000000059999991  0.5554724959276131  0.0003847705977699
  0.4000000059999991  0.8892561397414670  0.3330815876741199
  0.4000000059999991  0.8896101828555377  0.6671970420529615
  0.4000000059999991  0.8892179819313589  0.0000751289854957
  0.6004583925181044  0.2217243588258964  0.3327468951438204
  0.6003566357863893  0.2218925844612089  0.6668063855638651
  0.6002281429399909  0.2219383619819964 -0.0001087146861199
  0.6009947067491880  0.5551393855819730  0.3321044689168741
  0.6016204173059313  0.5547579440379951  0.6689540387259092
  0.6005009591547995  0.5553816871461446  0.9996619254953161
  0.6002916606205894  0.8894319998100978  0.3328700635984419
  0.6001744387060126  0.8892658412712945  0.6668534887139043
  0.6001559817049492  0.8891165648654170 -0.0000654687843262
  0.8001914742920710  0.2219655549753294  0.3330244541142482
  0.8001692360441749  0.2219387731995928  0.6666246227023207
  0.8001268420504173  0.2219967523408289 -0.0002161144829823
  0.8004091929338366  0.5553428089115354  0.3327860881940422
  0.8004027034917297  0.5553728171107692  0.6669393848275962
  0.8002104206912165  0.5554095225248430 -0.0000162969739547
  0.8001401734178071  0.8889794916124727  0.3330829692750105
  0.8000791799259487  0.8889400423682864  0.6666342147300707
  0.8001015566121976  0.8889203397608945 -0.0001847360514155
  0.0997380736523123  0.2775184471915778  0.1663801328093148
  0.0994245825963610  0.2774166610503226  0.4999633724921313
  0.0998331924132166  0.2775569669713449  0.8333857857455250
  0.0993878564406167  0.6112760799926634  0.1662985622305189
  0.0971996102119414  0.6112978114939165  0.5001225216640814
  0.0994707151413997  0.6113773376927676  0.8338365582419593
  0.0997311492522493  0.9446221262097149  0.1663553448798182
  0.0995460966527828  0.9448598897475443  0.4998925959912738
  0.0998579831959289  0.9445420663767041  0.8332739344716232
  0.2997798540005713  0.2770671215297947  0.1662569122765117
  0.2988789846685847  0.2756240612901602  0.5001182007315090
  0.2999376398489597  0.2773411460422576  0.8336542342072621
  0.2985155861719690  0.6118430683419110  0.1642792448066651
  0.2859881590687951  0.6161826103489769  0.5064599848268245
  0.2999299876761936  0.6111583116647812  0.8341118927357886
  0.2999054579420865  0.9446248694007752  0.1664594886120979
  0.2999128998024625  0.9449681745991827  0.5000309061150791
  0.2998868394344141  0.9446097154837130  0.8334760017165976
  0.5002201869994256  0.2770671215297947  0.1662569122765117
  0.5011210273314128  0.2756240612901602  0.5001182007315090
  0.5000624321510365  0.2773411460422576  0.8336542342072621
  0.5014843958280342  0.6118430683419110  0.1642792448066651
  0.5140118239312041  0.6161826103489769  0.5064599848268245
  0.5000700243238042  0.6111583116647812  0.8341118927357886
  0.5000945540579191  0.9446248694007752  0.1664594886120979
  0.5000871421975375  0.9449681745991827  0.5000309061150791
  0.5001132025655868  0.9446097154837130  0.8334760017165976
  0.7002618933476855  0.2775184471915778  0.1663801328093148
  0.7005753474036380  0.2774166610503226  0.4999633724921313
  0.7001667825867885  0.2775569669713449  0.8333857857455250
  0.7006120955593843  0.6112760799926634  0.1662985622305189
  0.7028003427880621  0.6112978114939165  0.5001225216640814
  0.7005292958585946  0.6113773376927676  0.8338365582419593
  0.7002688257477491  0.9446221262097149  0.1663553448798182
  0.7004538853472194  0.9448598897475443  0.4998925959912738
  0.7001419698040678  0.9445420663767041  0.8332739344716232
  0.8999999759999966  0.2776311616925107  0.1663713856378556
  0.8999999759999966  0.2774974181589516  0.4998772973394002
  0.8999999759999966  0.2776582655983938  0.8332453440326657
  0.8999999759999966  0.6112535271061565  0.1663647989907520
  0.8999999759999966  0.6112118274243140  0.4999799663051706
  0.8999999759999966  0.6112107475275476  0.8334287610520464
  0.8999999759999966  0.9445309313935727  0.1663940909858869
  0.8999999759999966  0.9445423803510560  0.4998407615588564
  0.8999999759999966  0.9445144731436013  0.8332040094840741
 -0.0001223895975212  0.1110556349149882  0.1663457258081735
 -0.0001856053379652  0.1110576930261552  0.4998256719828038
 -0.0000760500005414  0.1110414942011313  0.8331818358825170
 -0.0002107921574306  0.4443195921510838  0.1664168058457307
 -0.0004326796149505  0.4440370510740367  0.4999697513531042
  0.9998246692863612  0.4443727693743043  0.8334584361539685
 -0.0002097072664635  0.7779929209232995  0.1664555500190076
  0.9996563222822663  0.7780950557072688  0.4999379841502558
  0.9998578735511386  0.7779508769601130  0.8333203628386304
  0.1998168505140040  0.1108836620478076  0.1663523641449135
  0.1996487889149282  0.1107014998211282  0.4998808556974483
  0.1999028307600291  0.1110031498524472  0.8332764891305492
  0.1994933162506698  0.4441695242494295  0.1660668642109728
  0.1985441226001972  0.4437681511558576  0.5010704644049478
  0.1995374544084286  0.4441216730986692  0.8340920034477166
  0.1994608566949899  0.7782898050234810  0.1662025954079240
  0.1987100581362798  0.7797247346693543  0.5000071716405434
  0.1995671276827999  0.7780858688831317  0.8337593455305996
  0.4000000059999991  0.1108916950206224  0.1664433437918840
  0.4000000059999991  0.1109232857912397  0.4999552314330713
  0.4000000059999991  0.1109755768315964  0.8333338098185504
  0.4000000059999991  0.4428346717882283  0.1642976493324566
  0.4000000059999991  0.4302835729496151  0.5049510212323020
  0.4000000059999991  0.4444281776876276  0.8340396049274019
  0.4000000059999991  0.7781883568931063  0.1662333760967350
  0.4000000059999991  0.7795121925756816  0.5016214266191569
  0.4000000059999991  0.7782534789675716  0.8340616743845634
  0.6001831914859972  0.1108836620478076  0.1663523641449135
  0.6003512680850771  0.1107014998211282  0.4998808556974483
  0.6000971812399761  0.1110031498524472  0.8332764891305492
  0.6005066807493303  0.4441695242494295  0.1660668642109728
  0.6014559043998056  0.4437681511558576  0.5010704644049478
  0.6004625425915718  0.4441216730986692  0.8340920034477166
  0.6005391843050141  0.7782898050234810  0.1662025954079240
  0.6012899538637254  0.7797247346693543  0.5000071716405434
  0.6004328993171957  0.7780858688831317  0.8337593455305996
  0.8001224015975197  0.1110556349149882  0.1663457258081735
  0.8001856173379633  0.1110576930261552  0.4998256719828038
  0.8000760620005396  0.1110414942011313  0.8331818358825170
  0.8002107821574275  0.4443195921510838  0.1664168058457307
  0.8004327186149546  0.4440370510740367  0.4999697513531042
  0.8001753427136370  0.4443727693743043  0.8334584361539685
  0.8002097472664638  0.7779929209232995  0.1664555500190076
  0.8003436897177389  0.7780950557072688  0.4999379841502558
  0.8001421384488666  0.7779508769601130  0.8333203628386304
  0.0998861717005769  0.0555647537886792  0.1253724136438222
  0.0998248005244656  0.0556359682447497  0.4586354223359485
  0.0999948150712283  0.0555559992557673  0.7921159342332019
  0.0997870839469439  0.3887024069324395  0.1256040198764706
  0.0998501112435541  0.3886493524553153  0.4587987747931174
  0.0999223949543629  0.3888076724558360  0.7923839960969351
  0.0998623166188948  0.7222825970299943  0.1256576658710737
  0.1001153503047168  0.7221407921594973  0.4589016247163475
  0.1000034012783539  0.7222257883037370  0.7922951399311640
  0.2999765714987825  0.0555855362797404  0.1255160548216837
  0.3000188076309022  0.0557856627553498  0.4587494130413650
  0.2999993081622758  0.0555862081676212  0.7921848278589497
  0.2995761375427266  0.3884455368669637  0.1255620056299360
  0.2990688600272798  0.3892425781479917  0.4582269903759035
  0.3000154355672172  0.3889441334815755  0.7930129048393524
  0.2998339404804667  0.7227970354540902  0.1255310772858736
  0.3001831451389234  0.7223526821527153  0.4588018889959176
  0.2999788397399185  0.7222655554305174  0.7932364578198883
  0.5000234405012224  0.0555855362797404  0.1255160548216837
  0.4999811743691001  0.0557856627553498  0.4587494130413650
  0.5000007338377246  0.0555862081676212  0.7921848278589497
  0.5004238744572717  0.3884455368669637  0.1255620056299360
  0.5009310919727207  0.3892425781479917  0.4582269903759035
  0.4999846064327836  0.3889441334815755  0.7930129048393524
  0.5001661005195305  0.7227970354540902  0.1255310772858736
  0.4998168668610749  0.7223526821527153  0.4588018889959176
  0.5000211722600870  0.7222655554305174  0.7932364578198883
  0.7001138332994171  0.0555647537886792  0.1253724136438222
  0.7001751964755347  0.0556359682447497  0.4586354223359485
  0.7000052119287744  0.0555559992557673  0.7921159342332019
  0.7002129130530568  0.3887024069324395  0.1256040198764706
  0.7001498927564433  0.3886493524553153  0.4587987747931174
  0.7000776020456375  0.3888076724558360  0.7923839960969351
  0.7001376953811033  0.7222825970299943  0.1256576658710737
  0.6998846396952871  0.7221407921594973  0.4589016247163475
  0.6999965657216440  0.7222257883037370  0.7922951399311640
  0.8999999759999966  0.0555039017825868  0.1253549032007944
  0.8999999759999966  0.0554809597095853  0.4586851660396601
  0.8999999759999966  0.0555201500220355  0.7920670723226226
  0.8999999759999966  0.3887625578813134  0.1254760395897435
  0.8999999759999966  0.3885576869180004  0.4586850275799379
  0.8999999759999966  0.3888359603303977  0.7922022049014827
  0.8999999759999966  0.7222519244525634  0.1254935335660710
  0.8999999759999966  0.7221096484261056  0.4587900566864974
  0.8999999759999966  0.7222027333555687  0.7922222978030805
 -0.0000833297251154  0.2221239756012424  0.1253857715900126
  0.9998701701198747  0.2220944543013826  0.4586667847317307
 -0.0000124638019744  0.2221675425073083  0.7921312882097723
  0.9998386697755045  0.5554461882091636  0.1255958584211402
 -0.0006634754427960  0.5550529447353579  0.4585128782269264
 -0.0000194274668401  0.5555146825974420  0.7923293828556963
 -0.0000536139277895  0.8889026040898913  0.1254356537638233
 -0.0000039427529499  0.8888803699367819  0.4587377211658067
  0.0000008794120251  0.8888931190286680  0.7921433185018343
  0.1998061494414504  0.2220411043168643  0.1255312701953947
  0.1994342669328462  0.2219915262513438  0.4584984861101143
  0.2000105198858880  0.2222418272854801  0.7922097787287671
  0.1993660026673856  0.5553288044578134  0.1253859452980836
  0.1982429418561585  0.5544580590809763  0.4582452337167509
  0.1998575188905383  0.5554912082328818  0.7934999905904572
  0.1999086134572500  0.8891347737515132  0.1255820629679774
  0.1999654840779376  0.8896111948213792  0.4585755642211914
  0.2000104137597539  0.8889007959433407  0.7922803746028508
  0.4000000059999991  0.2220855562372582  0.1256021146719259
  0.4000000059999991  0.2226026531771882  0.4588422614945321
  0.4000000059999991  0.2222681859387107  0.7922745846543329
  0.4000000059999991  0.5554790657160481  0.1270542991825557
  0.4000000059999991  0.5555720223260373  0.7921378204009901
  0.4000000059999991  0.8890529679263038  0.1257413480256113
  0.4000000059999991  0.8890112794933870  0.4588910829174279
  0.4000000059999991  0.8889904903914537  0.7924942428187129
  0.6001938475585429  0.2220411043168643  0.1255312701953947
  0.6005657890671553  0.2219915262513438  0.4584984861101143
  0.5999894781141160  0.2222418272854801  0.7922097787287671
  0.6006339653326087  0.5553288044578134  0.1253859452980836
  0.6017571001438419  0.5544580590809763  0.4582452337167509
  0.6001424781094618  0.5554912082328818  0.7934999905904572
  0.6000914435427482  0.8891347737515132  0.1255820629679774
  0.6000345879220585  0.8896111948213792  0.4585755642211914
  0.5999896582402489  0.8889007959433407  0.7922803746028508
  0.8000833417251139  0.2221239756012424  0.1253857715900126
  0.8001298418801235  0.2220944543013826  0.4586667847317307
  0.8000125358019705  0.2221675425073083  0.7921312882097723
  0.8001613422244936  0.5554461882091636  0.1255958584211402
  0.8006634934428014  0.5550529447353579  0.4585128782269264
  0.8000194044668391  0.5555146825974420  0.7923293828556963
  0.8000536859277857  0.8889026040898913  0.1254356537638233
  0.8000039547529549  0.8888803699367819  0.4587377211658067
  0.7999990725879753  0.8888931190286680  0.7921433185018343
  0.0998994437886477  0.2776377385509990  0.2920834915931158
  0.0999653878794683  0.2776607321655644  0.6254866708819982
  0.0999456113447160  0.2776233331291374  0.9588952842572399
  0.0997749843607555  0.6111617278673686  0.2921743212412299
  0.1000190477498240  0.6110211295066048  0.6255939656341102
  0.0997810305560983  0.6111888023701947  0.9591765764365568
  0.0998165741174644  0.9444593340418450  0.2920202783617259
  0.0999803033292815  0.9443943687291730  0.6254293237788643
  0.0999227785786066  0.9444015893914586  0.9588180438734029
  0.2999159804169242  0.2773568896340742  0.2921778774087467
  0.2999871515496055  0.2780013055767822  0.6254698880626385
  0.2999749995745458  0.2775043412654391  0.9590617301697726
  0.2989568471021458  0.6114479430894360  0.2914095166506051
  0.2994411768330013  0.6109842143599097  0.6275005624414234
  0.3000532743210299  0.6110380952856023  0.9596448297304542
  0.3000161460159673  0.9443487420042961  0.2922023428867802
  0.3000023295913633  0.9444223559722065  0.6255366717619830
  0.2999598164244291  0.9444205608127839  0.9589916736132611
  0.5000840315830740  0.2773568896340742  0.2921778774087467
  0.5000128604503927  0.2780013055767822  0.6254698880626385
  0.5000249824254569  0.2775043412654391  0.9590617301697726
  0.5010431648978527  0.6114479430894360  0.2914095166506051
  0.5005588351669971  0.6109842143599097  0.6275005624414234
  0.4999467076789660  0.6110380952856023  0.9596448297304542
  0.4999838359840355  0.9443487420042961  0.2922023428867802
  0.4999976524086393  0.9444223559722065  0.6255366717619830
  0.5000401955755763  0.9444205608127839  0.9589916736132611
  0.7001005762113508  0.2776377385509990  0.2920834915931158
  0.7000345791205365  0.2776607321655644  0.6254866708819982
  0.7000543786552867  0.2776233331291374  0.9588952842572399
  0.7002249526392400  0.6111617278673686  0.2921743212412299
  0.6999809042501755  0.6110211295066048  0.6255939656341102
  0.7002189364438995  0.6111888023701947  0.9591765764365568
  0.7001833928825333  0.9444593340418450  0.2920202783617259
  0.7000196486707184  0.9443943687291730  0.6254293237788643
  0.7000772254213908  0.9444015893914586  0.9588180438734029
  0.8999999759999966  0.2776687348334839  0.2920188824383057
  0.8999999759999966  0.2776937584496967  0.6254547756113499
  0.8999999759999966  0.2776928274635133  0.9587891281923937
  0.8999999759999966  0.6112076946920798  0.2920292715022834
  0.8999999759999966  0.6111558623172559  0.6254940058740034
  0.8999999759999966  0.6110975577098857  0.9589425279878170
  0.8999999759999966  0.9444076231812354  0.2920501540409193
  0.8999999759999966  0.9443310738931311  0.6254087712418075
  0.8999999759999966  0.9443936339471404  0.9587535174833404
 -0.0000675154297940  0.1110324117702139  0.2919933744343102
 -0.0000204636706990  0.1109979664030534  0.6253994040126239
 -0.0000437612584080  0.1110137713370979  0.9587283436143165
 -0.0000519173933792  0.4443452239727526  0.2921315213678689
 -0.0000578428919593  0.4444370012202726  0.6255049255528188
 -0.0000413854924900  0.4443867512106872  0.9589589737276297
 -0.0000986586802357  0.7778161399032213  0.2921635442687835
  0.0000325588946936  0.7777226948988537  0.6254725420680687
 -0.0000537991621038  0.7777785676956958  0.9588587360572536
  0.1999423325619127  0.1108428998867549  0.2920394364735622
  0.2000110170210350  0.1110648592889590  0.6254114648469919
  0.1999544511068612  0.1109863942591666  0.9588209741700880
  0.1998413219831940  0.4442929556592166  0.2921210054536947
  0.1998159398208282  0.4444334799835595  0.6261325804339065
  0.1998403598576777  0.4442255871973186  0.9593359093824612
  0.1995525231977434  0.7779859035467445  0.2921474402006225
  0.2001199313742066  0.7777072057629612  0.6254824668426872
  0.1998004152382900  0.7778490068190486  0.9591554780983221
  0.4000000059999991  0.1109470988725568  0.2921846197594133
  0.4000000059999991  0.1112258566550486  0.6254807379268977
  0.4000000059999991  0.1109727165070810  0.9588702106181884
  0.4000000059999991  0.4426666523857022  0.2922126735932243
  0.4000000059999991  0.4446147119401493  0.6261261547904986
  0.4000000059999991  0.4444108246708917  0.9595764495367600
  0.4000000059999991  0.7776017503581999  0.2924510936473667
  0.4000000059999991  0.7777101243606853  0.6264289716529848
  0.4000000059999991  0.7779260304484764  0.9593458630919879
  0.6000576644380883  0.1108428998867549  0.2920394364735622
  0.5999890389789596  0.1110648592889590  0.6254114648469919
  0.6000456208931423  0.1109863942591666  0.9588209741700880
  0.6001586900168041  0.4442929556592166  0.2921210054536947
  0.6001841321791748  0.4444334799835595  0.6261325804339065
  0.6001596661423214  0.4442255871973186  0.9593359093824612
  0.6004475628022539  0.7779859035467445  0.2921474402006225
  0.5998800956257957  0.7777072057629612  0.6254824668426872
  0.6001996107617098  0.7778490068190486  0.9591554780983221
  0.8000675274297923  0.1110324117702139  0.2919933744343102
  0.8000204756706972  0.1109979664030534  0.6253994040126239
  0.8000437732584064  0.1110137713370979  0.9587283436143165
  0.8000519403933817  0.4443452239727526  0.2921315213678689
  0.8000578518919609  0.4444370012202726  0.6255049255528188
  0.8000413974924880  0.4443867512106872  0.9589589737276297
  0.8000986116802394  0.7778161399032213  0.2921635442687835
  0.7999673931053067  0.7777226948988537  0.6254725420680687
  0.8000538701621038  0.7777785676956958  0.9588587360572536
  0.4000000059999991  0.5780805494663802  0.4505142211947216
  0.4000000059999991  0.6368043413589773  0.4334858963520718
 
  0.00000000E+00  0.00000000E+00  0.00000000E+00
  0.00000000E+00  0.00000000E+00  0.00000000E+00
  0.00000000E+00  0.00000000E+00  0.00000000E+00
  0.00000000E+00  0.00000000E+00  0.00000000E+00
  0.00000000E+00  0.00000000E+00  0.00000000E+00
  0.00000000E+00  0.00000000E+00  0.00000000E+00
  0.00000000E+00  0.00000000E+00  0.00000000E+00
  0.00000000E+00  0.00000000E+00  0.00000000E+00
  0.00000000E+00  0.00000000E+00  0.00000000E+00
  0.00000000E+00  0.00000000E+00  0.00000000E+00
  0.00000000E+00  0.00000000E+00  0.00000000E+00
  0.00000000E+00  0.00000000E+00  0.00000000E+00
  0.00000000E+00  0.00000000E+00  0.00000000E+00
  0.00000000E+00  0.00000000E+00  0.00000000E+00
  0.00000000E+00  0.00000000E+00  0.00000000E+00
  0.00000000E+00  0.00000000E+00  0.00000000E+00
  0.00000000E+00  0.00000000E+00  0.00000000E+00
  0.00000000E+00  0.00000000E+00  0.00000000E+00
  0.00000000E+00  0.00000000E+00  0.00000000E+00
  0.00000000E+00  0.00000000E+00  0.00000000E+00
  0.00000000E+00  0.00000000E+00  0.00000000E+00
  0.00000000E+00  0.00000000E+00  0.00000000E+00
  0.00000000E+00  0.00000000E+00  0.00000000E+00
  0.00000000E+00  0.00000000E+00  0.00000000E+00
  0.00000000E+00  0.00000000E+00  0.00000000E+00
  0.00000000E+00  0.00000000E+00  0.00000000E+00
  0.00000000E+00  0.00000000E+00  0.00000000E+00
  0.00000000E+00  0.00000000E+00  0.00000000E+00
  0.00000000E+00  0.00000000E+00  0.00000000E+00
  0.00000000E+00  0.00000000E+00  0.00000000E+00
  0.00000000E+00  0.00000000E+00  0.00000000E+00
  0.00000000E+00  0.00000000E+00  0.00000000E+00
  0.00000000E+00  0.00000000E+00  0.00000000E+00
  0.00000000E+00  0.00000000E+00  0.00000000E+00
  0.00000000E+00  0.00000000E+00  0.00000000E+00
  0.00000000E+00  0.00000000E+00  0.00000000E+00
  0.00000000E+00  0.00000000E+00  0.00000000E+00
  0.00000000E+00  0.00000000E+00  0.00000000E+00
  0.00000000E+00  0.00000000E+00  0.00000000E+00
  0.00000000E+00  0.00000000E+00  0.00000000E+00
  0.00000000E+00  0.00000000E+00  0.00000000E+00
  0.00000000E+00  0.00000000E+00  0.00000000E+00
  0.00000000E+00  0.00000000E+00  0.00000000E+00
  0.00000000E+00  0.00000000E+00  0.00000000E+00
  0.00000000E+00  0.00000000E+00  0.00000000E+00
  0.00000000E+00  0.00000000E+00  0.00000000E+00
  0.00000000E+00  0.00000000E+00  0.00000000E+00
  0.00000000E+00  0.00000000E+00  0.00000000E+00
  0.00000000E+00  0.00000000E+00  0.00000000E+00
  0.00000000E+00  0.00000000E+00  0.00000000E+00
  0.00000000E+00  0.00000000E+00  0.00000000E+00
  0.00000000E+00  0.00000000E+00  0.00000000E+00
  0.00000000E+00  0.00000000E+00  0.00000000E+00
  0.00000000E+00  0.00000000E+00  0.00000000E+00
  0.00000000E+00  0.00000000E+00  0.00000000E+00
  0.00000000E+00  0.00000000E+00  0.00000000E+00
  0.00000000E+00  0.00000000E+00  0.00000000E+00
  0.00000000E+00  0.00000000E+00  0.00000000E+00
  0.00000000E+00  0.00000000E+00  0.00000000E+00
  0.00000000E+00  0.00000000E+00  0.00000000E+00
  0.00000000E+00  0.00000000E+00  0.00000000E+00
  0.00000000E+00  0.00000000E+00  0.00000000E+00
  0.00000000E+00  0.00000000E+00  0.00000000E+00
  0.00000000E+00  0.00000000E+00  0.00000000E+00
  0.00000000E+00  0.00000000E+00  0.00000000E+00
  0.00000000E+00  0.00000000E+00  0.00000000E+00
  0.00000000E+00  0.00000000E+00  0.00000000E+00
  0.00000000E+00  0.00000000E+00  0.00000000E+00
  0.00000000E+00  0.00000000E+00  0.00000000E+00
  0.00000000E+00  0.00000000E+00  0.00000000E+00
  0.00000000E+00  0.00000000E+00  0.00000000E+00
  0.00000000E+00  0.00000000E+00  0.00000000E+00
  0.00000000E+00  0.00000000E+00  0.00000000E+00
  0.00000000E+00  0.00000000E+00  0.00000000E+00
  0.00000000E+00  0.00000000E+00  0.00000000E+00
  0.00000000E+00  0.00000000E+00  0.00000000E+00
  0.00000000E+00  0.00000000E+00  0.00000000E+00
  0.00000000E+00  0.00000000E+00  0.00000000E+00
  0.00000000E+00  0.00000000E+00  0.00000000E+00
  0.00000000E+00  0.00000000E+00  0.00000000E+00
  0.00000000E+00  0.00000000E+00  0.00000000E+00
  0.00000000E+00  0.00000000E+00  0.00000000E+00
  0.00000000E+00  0.00000000E+00  0.00000000E+00
  0.00000000E+00  0.00000000E+00  0.00000000E+00
  0.00000000E+00  0.00000000E+00  0.00000000E+00
  0.00000000E+00  0.00000000E+00  0.00000000E+00
  0.00000000E+00  0.00000000E+00  0.00000000E+00
  0.00000000E+00  0.00000000E+00  0.00000000E+00
  0.00000000E+00  0.00000000E+00  0.00000000E+00
  0.00000000E+00  0.00000000E+00  0.00000000E+00
  0.00000000E+00  0.00000000E+00  0.00000000E+00
  0.00000000E+00  0.00000000E+00  0.00000000E+00
  0.00000000E+00  0.00000000E+00  0.00000000E+00
  0.00000000E+00  0.00000000E+00  0.00000000E+00
  0.00000000E+00  0.00000000E+00  0.00000000E+00
  0.00000000E+00  0.00000000E+00  0.00000000E+00
  0.00000000E+00  0.00000000E+00  0.00000000E+00
  0.00000000E+00  0.00000000E+00  0.00000000E+00
  0.00000000E+00  0.00000000E+00  0.00000000E+00
  0.00000000E+00  0.00000000E+00  0.00000000E+00
  0.00000000E+00  0.00000000E+00  0.00000000E+00
  0.00000000E+00  0.00000000E+00  0.00000000E+00
  0.00000000E+00  0.00000000E+00  0.00000000E+00
  0.00000000E+00  0.00000000E+00  0.00000000E+00
  0.00000000E+00  0.00000000E+00  0.00000000E+00
  0.00000000E+00  0.00000000E+00  0.00000000E+00
  0.00000000E+00  0.00000000E+00  0.00000000E+00
  0.00000000E+00  0.00000000E+00  0.00000000E+00
  0.00000000E+00  0.00000000E+00  0.00000000E+00
  0.00000000E+00  0.00000000E+00  0.00000000E+00
  0.00000000E+00  0.00000000E+00  0.00000000E+00
  0.00000000E+00  0.00000000E+00  0.00000000E+00
  0.00000000E+00  0.00000000E+00  0.00000000E+00
  0.00000000E+00  0.00000000E+00  0.00000000E+00
  0.00000000E+00  0.00000000E+00  0.00000000E+00
  0.00000000E+00  0.00000000E+00  0.00000000E+00
  0.00000000E+00  0.00000000E+00  0.00000000E+00
  0.00000000E+00  0.00000000E+00  0.00000000E+00
  0.00000000E+00  0.00000000E+00  0.00000000E+00
  0.00000000E+00  0.00000000E+00  0.00000000E+00
  0.00000000E+00  0.00000000E+00  0.00000000E+00
  0.00000000E+00  0.00000000E+00  0.00000000E+00
  0.00000000E+00  0.00000000E+00  0.00000000E+00
  0.00000000E+00  0.00000000E+00  0.00000000E+00
  0.00000000E+00  0.00000000E+00  0.00000000E+00
  0.00000000E+00  0.00000000E+00  0.00000000E+00
  0.00000000E+00  0.00000000E+00  0.00000000E+00
  0.00000000E+00  0.00000000E+00  0.00000000E+00
  0.00000000E+00  0.00000000E+00  0.00000000E+00
  0.00000000E+00  0.00000000E+00  0.00000000E+00
  0.00000000E+00  0.00000000E+00  0.00000000E+00
  0.00000000E+00  0.00000000E+00  0.00000000E+00
  0.00000000E+00  0.00000000E+00  0.00000000E+00
  0.00000000E+00  0.00000000E+00  0.00000000E+00
  0.00000000E+00  0.00000000E+00  0.00000000E+00
  0.00000000E+00  0.00000000E+00  0.00000000E+00
  0.00000000E+00  0.00000000E+00  0.00000000E+00
  0.00000000E+00  0.00000000E+00  0.00000000E+00
  0.00000000E+00  0.00000000E+00  0.00000000E+00
  0.00000000E+00  0.00000000E+00  0.00000000E+00
  0.00000000E+00  0.00000000E+00  0.00000000E+00
  0.00000000E+00  0.00000000E+00  0.00000000E+00
  0.00000000E+00  0.00000000E+00  0.00000000E+00
  0.00000000E+00  0.00000000E+00  0.00000000E+00
  0.00000000E+00  0.00000000E+00  0.00000000E+00
  0.00000000E+00  0.00000000E+00  0.00000000E+00
  0.00000000E+00  0.00000000E+00  0.00000000E+00
  0.00000000E+00  0.00000000E+00  0.00000000E+00
  0.00000000E+00  0.00000000E+00  0.00000000E+00
  0.00000000E+00  0.00000000E+00  0.00000000E+00
  0.00000000E+00  0.00000000E+00  0.00000000E+00
  0.00000000E+00  0.00000000E+00  0.00000000E+00
  0.00000000E+00  0.00000000E+00  0.00000000E+00
  0.00000000E+00  0.00000000E+00  0.00000000E+00
  0.00000000E+00  0.00000000E+00  0.00000000E+00
  0.00000000E+00  0.00000000E+00  0.00000000E+00