GaN_ONH                                 
1.0
       15.8909244537         0.0000000000         0.0000000000
        0.0000000000        16.5143318176         0.0000000000
        0.0000000000         0.0000000000        15.4982528687
   Ga    N    O    H
  180  179    1    1
Direct
     0.099782579         0.055730432         0.333587468
     0.099530704         0.054904729         0.667249620
     0.099857509         0.055159871         0.000445143
     0.100211769         0.388942331         0.333741337
     0.099908859         0.388472199         0.666886330
     0.099833794         0.388528079         0.000469589
     0.100092962         0.722490668         0.332878232
     0.099903271         0.721646667         0.666325927
     0.100052215         0.721865296         0.999393642
     0.299913615         0.055481080         0.333643764
     0.299821794         0.054791998         0.667069137
     0.299979329         0.055060580         0.000416327
     0.300344914         0.389232308         0.334739834
     0.298014730         0.385080278         0.670694768
     0.300062358         0.388500750         0.000202210
     0.299776524         0.722909212         0.333430141
     0.300329953         0.721540630         0.665196717
     0.300035149         0.722333074         0.998283923
     0.500086367         0.055481080         0.333643764
     0.500178158         0.054791998         0.667069137
     0.500020623         0.055060580         0.000416327
     0.499655128         0.389232308         0.334739834
     0.501985252         0.385080278         0.670694768
     0.499937683         0.388500750         0.000202210
     0.500223517         0.722909212         0.333430141
     0.499670058         0.721540630         0.665196717
     0.499964863         0.722333074         0.998283923
     0.700217426         0.055730432         0.333587468
     0.700469255         0.054904729         0.667249620
     0.700142503         0.055159871         0.000445143
     0.699788213         0.388942331         0.333741337
     0.700091124         0.388472199         0.666886330
     0.700166225         0.388528079         0.000469589
     0.699907005         0.722490668         0.332878232
     0.700096726         0.721646667         0.666325927
     0.699947774         0.721865296         0.999393642
     0.899999976         0.055628005         0.333722949
     0.899999976         0.055185664         0.667104661
     0.899999976         0.055172216         0.000429471
     0.899999976         0.388984919         0.333543062
     0.899999976         0.388719320         0.666892409
     0.899999976         0.388661772         0.000273683
     0.899999976         0.722177684         0.332978427
     0.899999976         0.721671581         0.666520119
     0.899999976         0.721768379         0.999827445
     0.999938309         0.222369105         0.333854944
     0.999832451         0.221969739         0.667233825
     0.999926567         0.221930295         0.000542486
     0.999972463         0.555550575         0.333145052
     0.000241861         0.555166364         0.666202366
     0.999997616         0.555261970         0.999723017
     0.999921024         0.888892591         0.333316833
     0.999830127         0.888272345         0.666823149
     0.999931633         0.888464451         0.000095745
     0.200047836         0.222247466         0.333730936
     0.199237451         0.220605627         0.667616963
     0.199775860         0.221675918         0.000967214
     0.199973717         0.555650890         0.331615150
     0.200879544         0.554809391         0.665603518
     0.199680030         0.555190682         0.998984039
     0.199621856         0.889272451         0.333193749
     0.199790508         0.888674796         0.666912735
     0.199922115         0.888535142         0.999714077
     0.400000006         0.222045302         0.334132135
     0.400000006         0.220862076         0.667772055
     0.400000006         0.221472219         0.001231140
     0.400000006         0.560697079         0.321467429
     0.400000006         0.551172495         0.663919568
     0.400000006         0.555091619         0.999187291
     0.400000006         0.889070511         0.332980424
     0.400000006         0.888461947         0.666091204
     0.400000006         0.888517261         0.999717236
     0.599952161         0.222247466         0.333730936
     0.600762546         0.220605627         0.667616963
     0.600224137         0.221675918         0.000967214
     0.600026309         0.555650890         0.331615150
     0.599120498         0.554809391         0.665603518
     0.600320041         0.555190682         0.998984039
     0.600378215         0.889272451         0.333193749
     0.600209475         0.888674796         0.666912735
     0.600077927         0.888535142         0.999714077
     0.800061703         0.222369105         0.333854944
     0.800167561         0.221969739         0.667233825
     0.800073445         0.221930295         0.000542486
     0.800027549         0.555550575         0.333145052
     0.799758136         0.555166364         0.666202366
     0.800002396         0.555261970         0.999723017
     0.800078988         0.888892591         0.333316833
     0.800169885         0.888272345         0.666823149
     0.800068378         0.888464451         0.000095745
     0.099906161         0.277686775         0.167299077
     0.100008406         0.277949452         0.500501156
     0.099886619         0.277357221         0.833959103
     0.099769115         0.611130893         0.166189432
     0.100903571         0.611156642         0.499208122
     0.100164711         0.610649168         0.832552075
     0.099850141         0.944455504         0.166706055
     0.098857909         0.945370793         0.500262976
     0.099822581         0.943923175         0.833592236
     0.300033420         0.277737141         0.167427957
     0.299007237         0.274979293         0.501099408
     0.299694300         0.276231140         0.835178614
     0.298493594         0.612214208         0.162997931
     0.298309416         0.617177188         0.497391552
     0.300476134         0.610324740         0.832192302
     0.299919903         0.944314659         0.166586608
     0.299606115         0.944776595         0.499906540
     0.300031871         0.943899035         0.833368421
     0.499966621         0.277737141         0.167427957
     0.500992775         0.274979293         0.501099408
     0.500305772         0.276231140         0.835178614
     0.501506388         0.612214208         0.162997931
     0.501690567         0.617177188         0.497391552
     0.499523878         0.610324740         0.832192302
     0.500080109         0.944314659         0.166586608
     0.500393927         0.944776595         0.499906540
     0.499968171         0.943899035         0.833368421
     0.700093806         0.277686775         0.167299077
     0.699991524         0.277949452         0.500501156
     0.700113356         0.277357221         0.833959103
     0.700230837         0.611130893         0.166189432
     0.699096382         0.611156642         0.499208122
     0.699835300         0.610649168         0.832552075
     0.700149834         0.944455504         0.166706055
     0.701142073         0.945370793         0.500262976
     0.700177372         0.943923175         0.833592236
     0.899999976         0.277769089         0.167115927
     0.899999976         0.278260440         0.500465274
     0.899999976         0.277536511         0.833821356
     0.899999976         0.610971272         0.166491598
     0.899999976         0.610923350         0.499700814
     0.899999976         0.610659003         0.832953811
     0.899999976         0.944326639         0.166893631
     0.899999976         0.944517493         0.500187576
     0.899999976         0.943982303         0.833575487
     0.999912918         0.111085065         0.167129844
     0.999659598         0.111658797         0.500487804
     0.999896944         0.110757001         0.833877861
     0.000026502         0.444400311         0.166832492
     0.000323561         0.444495112         0.500024974
     0.999924600         0.444147289         0.833370328
     0.000011234         0.777661145         0.166425511
     0.999553382         0.777587771         0.499787360
     0.999948084         0.777242899         0.833243132
     0.199985415         0.110934593         0.167157665
     0.199358985         0.110449798         0.500433087
     0.199806571         0.110290661         0.834056020
     0.200067148         0.444350481         0.166619852
     0.201430574         0.444278270         0.500614405
     0.199430391         0.444014430         0.834038734
     0.199859887         0.778039277         0.166148692
     0.197360635         0.780985177         0.500430584
     0.199994460         0.777220249         0.832359552
     0.400000006         0.110861354         0.167284325
     0.400000006         0.110308535         0.500562787
     0.400000006         0.110318683         0.833931327
     0.400000006         0.444770128         0.166846901
     0.400000006         0.432231843         0.509777308
     0.400000006         0.443324655         0.832796514
     0.400000006         0.777763724         0.166080892
     0.400000006         0.779193044         0.498419225
     0.400000006         0.777294457         0.831839263
     0.600014627         0.110934593         0.167157665
     0.600641072         0.110449798         0.500433087
     0.600193441         0.110290661         0.834056020
     0.599932849         0.444350481         0.166619852
     0.598569453         0.444278270         0.500614405
     0.600569606         0.444014430         0.834038734
     0.600140154         0.778039277         0.166148692
     0.602639377         0.780985177         0.500430584
     0.600005567         0.777220249         0.832359552
     0.800087094         0.111085065         0.167129844
     0.800340414         0.111658797         0.500487804
     0.800103068         0.110757001         0.833877861
     0.799973488         0.444400311         0.166832492
     0.799676478         0.444495112         0.500024974
     0.800075412         0.444147289         0.833370328
     0.799988806         0.777661145         0.166425511
     0.800446630         0.777587771         0.499787360
     0.800051928         0.777242899         0.833243132
     0.099895053         0.055609629         0.126019672
     0.099111542         0.056054626         0.459164709
     0.099761084         0.055040289         0.792844415
     0.100005671         0.388698488         0.126082242
     0.100724570         0.389303595         0.459449142
     0.099757776         0.388392836         0.792538822
     0.099986851         0.722133636         0.125065759
     0.099521436         0.722367227         0.458632737
     0.099823490         0.721695960         0.791859984
     0.299995422         0.055512432         0.125993192
     0.299685031         0.055803694         0.459250420
     0.299901396         0.055053923         0.792727351
     0.300280541         0.388912588         0.126210183
     0.299526989         0.385744303         0.460207462
     0.298773319         0.387197405         0.795513332
     0.299861699         0.723257959         0.123666212
     0.296178520         0.728818536         0.458958000
     0.299969375         0.721435547         0.790967762
     0.500004590         0.055512432         0.125993192
     0.500314951         0.055803694         0.459250420
     0.500098646         0.055053923         0.792727351
     0.499719471         0.388912588         0.126210183
     0.500472963         0.385744303         0.460207462
     0.501226723         0.387197405         0.795513332
     0.500138342         0.723257959         0.123666212
     0.503821492         0.728818536         0.458958000
     0.500030637         0.721435547         0.790967762
     0.700104952         0.055609629         0.126019672
     0.700888455         0.056054626         0.459164709
     0.700238943         0.055040289         0.792844415
     0.699994326         0.388698488         0.126082242
     0.699275434         0.389303595         0.459449142
     0.700242221         0.388392836         0.792538822
     0.700013161         0.722133636         0.125065759
     0.700478554         0.722367227         0.458632737
     0.700176477         0.721695960         0.791859984
     0.899999976         0.055448420         0.126035154
     0.899999976         0.055739131         0.459382206
     0.899999976         0.055124667         0.792746127
     0.899999976         0.388828278         0.125920013
     0.899999976         0.389301240         0.459196746
     0.899999976         0.388567835         0.792504132
     0.899999976         0.722028077         0.125461385
     0.899999976         0.721888781         0.458599299
     0.899999976         0.721735001         0.792117596
     0.999955535         0.222179413         0.126162469
     0.999834180         0.222758949         0.459480107
     0.999905944         0.221866384         0.792864859
     0.999892354         0.555393517         0.125401810
     0.000566906         0.555580437         0.458851516
     0.000055934         0.555130661         0.791862071
     0.999922991         0.888776898         0.125682488
     0.999678254         0.888767362         0.459000349
     0.999907374         0.888339698         0.792446554
     0.199969098         0.222164527         0.126550391
     0.199060246         0.221223861         0.459282905
     0.199655280         0.221319422         0.793212235
     0.199154273         0.555086732         0.124310888
     0.202500314         0.555531621         0.457678914
     0.200278565         0.554923296         0.791421533
     0.199802384         0.889091969         0.125299722
     0.198621929         0.891242027         0.458774060
     0.199911952         0.888602436         0.792414904
     0.400000006         0.222042575         0.126724809
     0.400000006         0.221307769         0.459843010
     0.400000006         0.221529782         0.793427706
     0.400000006         0.555966079         0.125266895
     0.400000006         0.554375112         0.790664494
     0.400000006         0.888942540         0.125364348
     0.400000006         0.890481830         0.458567649
     0.400000006         0.888567924         0.791771352
     0.600030899         0.222164527         0.126550391
     0.600939810         0.221223861         0.459282905
     0.600344718         0.221319422         0.793212235
     0.600845695         0.555086732         0.124310888
     0.597499728         0.555531621         0.457678914
     0.599721432         0.554923296         0.791421533
     0.600197673         0.889091969         0.125299722
     0.601378143         0.891242027         0.458774060
     0.600088120         0.888602436         0.792414904
     0.800044477         0.222179413         0.126162469
     0.800165832         0.222758949         0.459480107
     0.800094128         0.221866384         0.792864859
     0.800107658         0.555393517         0.125401810
     0.799433112         0.555580437         0.458851516
     0.799944043         0.555130661         0.791862071
     0.800077081         0.888776898         0.125682488
     0.800321758         0.888767362         0.459000349
     0.800092578         0.888339698         0.792446554
     0.100028940         0.277844578         0.292913318
     0.099972501         0.277271122         0.626181364
     0.099979736         0.277406007         0.959598601
     0.099624678         0.611203432         0.291948169
     0.100644350         0.610438168         0.624915957
     0.099842027         0.610789299         0.958163857
     0.099634126         0.944789767         0.292248219
     0.099581659         0.944005430         0.625910819
     0.099835567         0.944132268         0.959158301
     0.300289035         0.278207779         0.293110728
     0.299305677         0.275206119         0.626708388
     0.299980134         0.276948541         0.960545123
     0.296929061         0.612952292         0.287500381
     0.301340014         0.610005140         0.622612834
     0.299994856         0.610748351         0.958081245
     0.299840420         0.944531918         0.292196006
     0.299798459         0.943895698         0.625590742
     0.299987495         0.944088757         0.958962619
     0.499710977         0.278207779         0.293110728
     0.500694335         0.275206119         0.626708388
     0.500019848         0.276948541         0.960545123
     0.503070951         0.612952292         0.287500381
     0.498659998         0.610005140         0.622612834
     0.500005126         0.610748351         0.958081245
     0.500159562         0.944531918         0.292196006
     0.500201523         0.943895698         0.625590742
     0.500012517         0.944088757         0.958962619
     0.699971080         0.277844578         0.292913318
     0.700027466         0.277271122         0.626181364
     0.700020254         0.277406007         0.959598601
     0.700375259         0.611203432         0.291948169
     0.699355602         0.610438168         0.624915957
     0.700157940         0.610789299         0.958163857
     0.700365841         0.944789767         0.292248219
     0.700418293         0.944005430         0.625910819
     0.700164437         0.944132268         0.959158301
     0.899999976         0.277918935         0.292722702
     0.899999976         0.277652651         0.626083910
     0.899999976         0.277540416         0.959448457
     0.899999976         0.610995114         0.292176694
     0.899999976         0.610598505         0.625327289
     0.899999976         0.610710025         0.958626151
     0.899999976         0.944590867         0.292497456
     0.899999976         0.944113374         0.625867128
     0.899999976         0.944120944         0.959183514
     0.999862731         0.111366622         0.292717308
     0.999847889         0.110931404         0.626138806
     0.999930143         0.110844344         0.959490836
     0.000144016         0.444369286         0.292513609
     0.000069854         0.444025725         0.625624061
     0.999980390         0.444092244         0.959046364
     0.999898911         0.777826667         0.292049497
     0.999884188         0.777227938         0.625445127
     0.999915659         0.777399778         0.958842337
     0.199981019         0.111178607         0.292717516
     0.199558362         0.109916866         0.626080930
     0.199928880         0.110634454         0.959646463
     0.200380206         0.444215417         0.292474002
     0.200624943         0.443339467         0.626200795
     0.199792042         0.443934917         0.959448040
     0.199579492         0.778456688         0.291584402
     0.199594751         0.777587831         0.625972450
     0.199788883         0.777570546         0.957982659
     0.400000006         0.111054912         0.292852700
     0.400000006         0.109984986         0.626221240
     0.400000006         0.110569157         0.959553421
     0.400000006         0.446668595         0.294430256
     0.400000006         0.436092764         0.635783613
     0.400000006         0.443929285         0.958900690
     0.400000006         0.777838528         0.291778922
     0.400000006         0.777493894         0.624509454
     0.400000006         0.777732491         0.957406402
     0.600018978         0.111178607         0.292717516
     0.600441694         0.109916866         0.626080930
     0.600071192         0.110634454         0.959646463
     0.599619806         0.444215417         0.292474002
     0.599375129         0.443339467         0.626200795
     0.600207984         0.443934917         0.959448040
     0.600420594         0.778456688         0.291584402
     0.600405276         0.777587831         0.625972450
     0.600211143         0.777570546         0.957982659
     0.800137281         0.111366622         0.292717308
     0.800152123         0.110931404         0.626138806
     0.800069869         0.110844344         0.959490836
     0.799856007         0.444369286         0.292513609
     0.799930155         0.444025725         0.625624061
     0.800019622         0.444092244         0.959046364
     0.800101042         0.777826667         0.292049497
     0.800115764         0.777227938         0.625445127
     0.800084412         0.777399778         0.958842337
     0.400000006         0.608033895         0.431048691
     0.400000006         0.564252913         0.471798331
