GaN_CN                                  
1.0
        9.5889339447         0.0000000000         0.0000000000
        0.0000000000        11.0723476410         0.0000000000
        0.0000000000         0.0000000000        10.4212007523
   Ga    N    C
   48   47    1
Cartesian
     1.592755605         0.915643131         5.206821598
     1.598565074         0.919379678         0.005451959
     1.609004915         6.446289676         5.195703599
     1.598833415         6.446324654         0.002618678
     4.794466972         0.931757538         5.199115276
     4.794466972         0.918593332         0.006033760
     4.794466972         6.436335449         5.198991667
     4.794466972         6.447676259        10.403924031
     7.996178054         0.915643131         5.206821598
     7.990368871         0.919379678         0.005451959
     7.979929030         6.446289676         5.195703599
     7.990100244         6.446324654         0.002618678
     0.000000000         3.686229240         5.206393314
     0.000000000         3.689754434         0.004190342
     0.000000000         9.209174755         5.206093297
     0.000000000         9.214555436         0.002733034
     3.216574395         3.688169532         5.206842096
     3.197341334         3.686149054        10.404474993
     3.192916433         9.227989650         5.205350400
     3.195125740         9.216749814         0.003671325
     6.372359835         3.688169532         5.206842096
     6.391592896         3.686149054        10.404474993
     6.396017798         9.227989650         5.205350400
     6.393808205         9.216749814         0.003671325
     1.608263050         4.608363688         2.605696794
     1.597532721         4.613768128         7.809958003
     1.596688120        10.160464404         2.611024103
     1.594934192        10.159439481         7.813967539
     4.794466972         4.616872595         2.622436529
     4.794466972         4.617143840         7.781016048
     4.794466972        10.164825442         2.610800489
     4.794466972        10.164010387         7.810010801
     7.980670895         4.608363688         2.605696794
     7.991401081         4.613768128         7.809958003
     7.992245824        10.160464404         2.611024103
     7.993999896        10.159439481         7.813967539
     0.000000000         1.856451489         2.607726408
     0.000000000         1.855567798         7.812836422
     0.000000000         7.380995766         2.612666740
     0.000000000         7.380185331         7.808030569
     3.195142029         1.866967015         2.609553216
     3.193068464         1.850781909         7.810640649
     3.206349741         7.384268524         2.611596184
     3.195989916         7.391155901         7.808441150
     6.393792201         1.866967015         2.609553216
     6.395865767         1.850781909         7.810640649
     6.382584204         7.384268524         2.611596184
     6.392944029         7.391155901         7.808441150
     1.596807002         0.924376426         1.959611008
     1.593538765         0.922760588         7.171791440
     1.600111532         6.461433195         1.958929139
     1.599168626         6.462578891         7.163323275
     4.794466972         0.928961439         1.960049697
     4.794466972         0.927999790         7.165798565
     4.794466972         6.476161597         1.922403073
     4.794466972         6.485243353         7.185718909
     7.992126943         0.924376426         1.959611008
     7.995395037         0.922760588         7.171791440
     7.988822270         6.461433195         1.958929139
     7.989765319         6.462578891         7.163323275
     0.000000000         3.695451238         1.958379264
     0.000000000         3.694183118         7.170294463
     0.000000000         9.224954479         1.959091725
     0.000000000         9.225298320         7.171098855
     3.188172895         3.688718292         1.923186657
     3.181960487         3.684437439         7.190309222
     3.195833599         9.233924700         1.958455044
     3.193875771         9.238520685         7.169801890
     6.400761621         3.688718292         1.923186657
     6.406973744         3.684437439         7.190309222
     6.393100632         9.233924700         1.958455044
     6.395058174         9.238520685         7.169801890
     1.585266794         4.603550575         4.562455627
     1.593198267         4.613062627         9.770542822
     1.588553320        10.143937602         4.565798667
     1.595978404        10.146607153         9.775474769
     4.794466972         4.610218515         9.753767992
     4.794466972        10.151527180         4.565647106
     4.794466972        10.146628272         9.773470933
     8.003667008         4.603550575         4.562455627
     7.995735678         4.613062627         9.770542822
     8.000380624        10.143937602         4.565798667
     7.992955683        10.146607153         9.775474769
     0.000000000         1.838802254         4.565013220
     0.000000000         1.843139369         9.775408927
     0.000000000         7.370625762         4.566099305
     0.000000000         7.377099342         9.771844136
     3.179363958         1.817000530         4.564502944
     3.196386283         1.832456377         9.770502448
     3.188548114         7.407268247         4.564317220
     3.188814740         7.383615160         9.768736513
     6.409570273         1.817000530         4.564502944
     6.392547948         1.832456377         9.770502448
     6.400386116         7.407268247         4.564317220
     6.400119776         7.383615160         9.768736513
     4.794466972         4.613946648         4.561449361
