
&control
  prefix = 'Si',
  pseudo_dir = './pseudo',
  outdir = './',
  max_seconds=14e3

  calculation = 'vc-relax'
  restart_mode = 'from_scratch',
  tprnfor = .true.
  forc_conv_thr = 1.0d-4
  wf_collect = .true.
/
&system    
  ibrav=  0, celldm(1) = 30.7893077475, nat = 216, ntyp= 1,
  ecutwfc = 100.0,
  ecutrho = 600.0,
  nbnd = 1000,
  occupations='smearing', smearing='gauss', degauss=0.001
  la2F = .true.
  nosym = .true.
/
&electrons
  mixing_mode = 'plain'
  mixing_beta = 0.7 
  conv_thr =  1.0d-12
/
&ions
  ion_dynamics = 'bfgs'
/
&cell
  cell_dynamics = 'bfgs'
/
CELL_PARAMETERS (alat)
 1.000000000   0.000000000   0.000000000
 0.000000000   1.000000000   0.000000000
 0.000000000   0.000000000   1.000000000
ATOMIC_SPECIES
 Si  28.08550  Si.pbe-n-kjpaw_psl.0.1.UPF
ATOMIC_POSITIONS (alat)
Si 0.000000 0.000000 0.000000 1 1 1
Si 0.166667 0.166667 0.000000 1 1 1
Si 0.166667 0.000000 0.166667 1 1 1
Si 0.000000 0.166667 0.166667 1 1 1
Si 0.083333 0.083333 0.083333 1 1 1
Si 0.250000 0.250000 0.083333 1 1 1
Si 0.250000 0.083333 0.250000 1 1 1
Si 0.083333 0.250000 0.250000 1 1 1
Si 0.000000 0.000000 0.333333 1 1 1
Si 0.166667 0.166667 0.333333 1 1 1
Si 0.166667 0.000000 0.500000 1 1 1
Si 0.000000 0.166667 0.500000 1 1 1
Si 0.083333 0.083333 0.416667 1 1 1
Si 0.250000 0.250000 0.416667 1 1 1
Si 0.250000 0.083333 0.583333 1 1 1
Si 0.083333 0.250000 0.583333 1 1 1
Si 0.000000 0.000000 0.666667 1 1 1
Si 0.166667 0.166667 0.666667 1 1 1
Si 0.166667 0.000000 0.833333 1 1 1
Si 0.000000 0.166667 0.833333 1 1 1
Si 0.083333 0.083333 0.750000 1 1 1
Si 0.250000 0.250000 0.750000 1 1 1
Si 0.250000 0.083333 0.916667 1 1 1
Si 0.083333 0.250000 0.916667 1 1 1
Si 0.000000 0.333333 0.000000 1 1 1
Si 0.166667 0.500000 0.000000 1 1 1
Si 0.166667 0.333333 0.166667 1 1 1
Si 0.000000 0.500000 0.166667 1 1 1
Si 0.083333 0.416667 0.083333 1 1 1
Si 0.250000 0.583333 0.083333 1 1 1
Si 0.250000 0.416667 0.250000 1 1 1
Si 0.083333 0.583333 0.250000 1 1 1
Si 0.000000 0.333333 0.333333 1 1 1
Si 0.166667 0.500000 0.333333 1 1 1
Si 0.166667 0.333333 0.500000 1 1 1
Si 0.000000 0.500000 0.500000 1 1 1
Si 0.083333 0.416667 0.416667 1 1 1
Si 0.250000 0.583333 0.416667 1 1 1
Si 0.250000 0.416667 0.583333 1 1 1
Si 0.083333 0.583333 0.583333 1 1 1
Si 0.000000 0.333333 0.666667 1 1 1
Si 0.166667 0.500000 0.666667 1 1 1
Si 0.166667 0.333333 0.833333 1 1 1
Si 0.000000 0.500000 0.833333 1 1 1
Si 0.083333 0.416667 0.750000 1 1 1
Si 0.250000 0.583333 0.750000 1 1 1
Si 0.250000 0.416667 0.916667 1 1 1
Si 0.083333 0.583333 0.916667 1 1 1
Si 0.000000 0.666667 0.000000 1 1 1
Si 0.166667 0.833333 0.000000 1 1 1
Si 0.166667 0.666667 0.166667 1 1 1
Si 0.000000 0.833333 0.166667 1 1 1
Si 0.083333 0.750000 0.083333 1 1 1
Si 0.250000 0.916667 0.083333 1 1 1
Si 0.250000 0.750000 0.250000 1 1 1
Si 0.083333 0.916667 0.250000 1 1 1
Si 0.000000 0.666667 0.333333 1 1 1
Si 0.166667 0.833333 0.333333 1 1 1
Si 0.166667 0.666667 0.500000 1 1 1
Si 0.000000 0.833333 0.500000 1 1 1
Si 0.083333 0.750000 0.416667 1 1 1
Si 0.250000 0.916667 0.416667 1 1 1
Si 0.250000 0.750000 0.583333 1 1 1
Si 0.083333 0.916667 0.583333 1 1 1
Si 0.000000 0.666667 0.666667 1 1 1
Si 0.166667 0.833333 0.666667 1 1 1
Si 0.166667 0.666667 0.833333 1 1 1
Si 0.000000 0.833333 0.833333 1 1 1
Si 0.083333 0.750000 0.750000 1 1 1
Si 0.250000 0.916667 0.750000 1 1 1
Si 0.250000 0.750000 0.916667 1 1 1
Si 0.083333 0.916667 0.916667 1 1 1
Si 0.333333 0.000000 0.000000 1 1 1
Si 0.500000 0.166667 0.000000 1 1 1
Si 0.500000 0.000000 0.166667 1 1 1
Si 0.333333 0.166667 0.166667 1 1 1
Si 0.416667 0.083333 0.083333 1 1 1
Si 0.583333 0.250000 0.083333 1 1 1
Si 0.583333 0.083333 0.250000 1 1 1
Si 0.416667 0.250000 0.250000 1 1 1
Si 0.333333 0.000000 0.333333 1 1 1
Si 0.500000 0.166667 0.333333 1 1 1
Si 0.500000 0.000000 0.500000 1 1 1
Si 0.333333 0.166667 0.500000 1 1 1
Si 0.416667 0.083333 0.416667 1 1 1
Si 0.583333 0.250000 0.416667 1 1 1
Si 0.583333 0.083333 0.583333 1 1 1
Si 0.416667 0.250000 0.583333 1 1 1
Si 0.333333 0.000000 0.666667 1 1 1
Si 0.500000 0.166667 0.666667 1 1 1
Si 0.500000 0.000000 0.833333 1 1 1
Si 0.333333 0.166667 0.833333 1 1 1
Si 0.416667 0.083333 0.750000 1 1 1
Si 0.583333 0.250000 0.750000 1 1 1
Si 0.583333 0.083333 0.916667 1 1 1
Si 0.416667 0.250000 0.916667 1 1 1
Si 0.333333 0.333333 0.000000 1 1 1
Si 0.500000 0.500000 0.000000 1 1 1
Si 0.500000 0.333333 0.166667 1 1 1
Si 0.333333 0.500000 0.166667 1 1 1
Si 0.416667 0.416667 0.083333 1 1 1
Si 0.583333 0.583333 0.083333 1 1 1
Si 0.583333 0.416667 0.250000 1 1 1
Si 0.416667 0.583333 0.250000 1 1 1
Si 0.333333 0.333333 0.333333 1 1 1
Si 0.500000 0.500000 0.333333 1 1 1
Si 0.500000 0.333333 0.500000 1 1 1
Si 0.333333 0.500000 0.500000 1 1 1
Si 0.416667 0.416667 0.416667 1 1 1
Si 0.583333 0.583333 0.416667 1 1 1
Si 0.583333 0.416667 0.583333 1 1 1
Si 0.416667 0.583333 0.583333 1 1 1
Si 0.333333 0.333333 0.666667 1 1 1
Si 0.500000 0.500000 0.666667 1 1 1
Si 0.500000 0.333333 0.833333 1 1 1
Si 0.333333 0.500000 0.833333 1 1 1
Si 0.416667 0.416667 0.750000 1 1 1
Si 0.583333 0.583333 0.750000 1 1 1
Si 0.583333 0.416667 0.916667 1 1 1
Si 0.416667 0.583333 0.916667 1 1 1
Si 0.333333 0.666667 0.000000 1 1 1
Si 0.500000 0.833333 0.000000 1 1 1
Si 0.500000 0.666667 0.166667 1 1 1
Si 0.333333 0.833333 0.166667 1 1 1
Si 0.416667 0.750000 0.083333 1 1 1
Si 0.583333 0.916667 0.083333 1 1 1
Si 0.583333 0.750000 0.250000 1 1 1
Si 0.416667 0.916667 0.250000 1 1 1
Si 0.333333 0.666667 0.333333 1 1 1
Si 0.500000 0.833333 0.333333 1 1 1
Si 0.500000 0.666667 0.500000 1 1 1
Si 0.333333 0.833333 0.500000 1 1 1
Si 0.416667 0.750000 0.416667 1 1 1
Si 0.583333 0.916667 0.416667 1 1 1
Si 0.583333 0.750000 0.583333 1 1 1
Si 0.416667 0.916667 0.583333 1 1 1
Si 0.333333 0.666667 0.666667 1 1 1
Si 0.500000 0.833333 0.666667 1 1 1
Si 0.500000 0.666667 0.833333 1 1 1
Si 0.333333 0.833333 0.833333 1 1 1
Si 0.416667 0.750000 0.750000 1 1 1
Si 0.583333 0.916667 0.750000 1 1 1
Si 0.583333 0.750000 0.916667 1 1 1
Si 0.416667 0.916667 0.916667 1 1 1
Si 0.666667 0.000000 0.000000 1 1 1
Si 0.833333 0.166667 0.000000 1 1 1
Si 0.833333 0.000000 0.166667 1 1 1
Si 0.666667 0.166667 0.166667 1 1 1
Si 0.750000 0.083333 0.083333 1 1 1
Si 0.916667 0.250000 0.083333 1 1 1
Si 0.916667 0.083333 0.250000 1 1 1
Si 0.750000 0.250000 0.250000 1 1 1
Si 0.666667 0.000000 0.333333 1 1 1
Si 0.833333 0.166667 0.333333 1 1 1
Si 0.833333 0.000000 0.500000 1 1 1
Si 0.666667 0.166667 0.500000 1 1 1
Si 0.750000 0.083333 0.416667 1 1 1
Si 0.916667 0.250000 0.416667 1 1 1
Si 0.916667 0.083333 0.583333 1 1 1
Si 0.750000 0.250000 0.583333 1 1 1
Si 0.666667 0.000000 0.666667 1 1 1
Si 0.833333 0.166667 0.666667 1 1 1
Si 0.833333 0.000000 0.833333 1 1 1
Si 0.666667 0.166667 0.833333 1 1 1
Si 0.750000 0.083333 0.750000 1 1 1
Si 0.916667 0.250000 0.750000 1 1 1
Si 0.916667 0.083333 0.916667 1 1 1
Si 0.750000 0.250000 0.916667 1 1 1
Si 0.666667 0.333333 0.000000 1 1 1
Si 0.833333 0.500000 0.000000 1 1 1
Si 0.833333 0.333333 0.166667 1 1 1
Si 0.666667 0.500000 0.166667 1 1 1
Si 0.750000 0.416667 0.083333 1 1 1
Si 0.916667 0.583333 0.083333 1 1 1
Si 0.916667 0.416667 0.250000 1 1 1
Si 0.750000 0.583333 0.250000 1 1 1
Si 0.666667 0.333333 0.333333 1 1 1
Si 0.833333 0.500000 0.333333 1 1 1
Si 0.833333 0.333333 0.500000 1 1 1
Si 0.666667 0.500000 0.500000 1 1 1
Si 0.750000 0.416667 0.416667 1 1 1
Si 0.916667 0.583333 0.416667 1 1 1
Si 0.916667 0.416667 0.583333 1 1 1
Si 0.750000 0.583333 0.583333 1 1 1
Si 0.666667 0.333333 0.666667 1 1 1
Si 0.833333 0.500000 0.666667 1 1 1
Si 0.833333 0.333333 0.833333 1 1 1
Si 0.666667 0.500000 0.833333 1 1 1
Si 0.750000 0.416667 0.750000 1 1 1
Si 0.916667 0.583333 0.750000 1 1 1
Si 0.916667 0.416667 0.916667 1 1 1
Si 0.750000 0.583333 0.916667 1 1 1
Si 0.666667 0.666667 0.000000 1 1 1
Si 0.833333 0.833333 0.000000 1 1 1
Si 0.833333 0.666667 0.166667 1 1 1
Si 0.666667 0.833333 0.166667 1 1 1
Si 0.750000 0.750000 0.083333 1 1 1
Si 0.916667 0.916667 0.083333 1 1 1
Si 0.916667 0.750000 0.250000 1 1 1
Si 0.750000 0.916667 0.250000 1 1 1
Si 0.666667 0.666667 0.333333 1 1 1
Si 0.833333 0.833333 0.333333 1 1 1
Si 0.833333 0.666667 0.500000 1 1 1
Si 0.666667 0.833333 0.500000 1 1 1
Si 0.750000 0.750000 0.416667 1 1 1
Si 0.916667 0.916667 0.416667 1 1 1
Si 0.916667 0.750000 0.583333 1 1 1
Si 0.750000 0.916667 0.583333 1 1 1
Si 0.666667 0.666667 0.666667 1 1 1
Si 0.833333 0.833333 0.666667 1 1 1
Si 0.833333 0.666667 0.833333 1 1 1
Si 0.666667 0.833333 0.833333 1 1 1
Si 0.750000 0.750000 0.750000 1 1 1
Si 0.916667 0.916667 0.750000 1 1 1
Si 0.916667 0.750000 0.916667 1 1 1
Si 0.750000 0.916667 0.916667 1 1 1
K_POINTS {automatic}
  1 1 1 0 0 0

