SiVH3                                   
   1.00000000000000     
    16.4117625311398250    0.0000347833292740    0.0000000000000000
     0.0000347833292740   16.4117625311398250    0.0000000000000000
     0.0000000000000000    0.0000000000000000   16.4117624058248701
   Si   H 
   215     3
Direct
  0.0023551547267317  0.0031264851036486  0.0027112855215442
  0.1689952111998289  0.1697673083073211  0.0023750941171129
  0.1688607747242552  0.0030481258756911  0.1691979000594546
  0.0022832698660987  0.1696334173965890  0.1691995312263830
  0.0857320820301773  0.0865021798844512  0.0859186748405944
  0.2521980268025502  0.2529657872544688  0.0856712616252789
  0.2522935344067003  0.0861913514675239  0.2524532988365081
  0.0854290099595439  0.2530630491278371  0.2524573947702592
  0.0024042478099219  0.0031739561925429  0.3358756669527195
  0.1687541340050239  0.1695175548479300  0.3358155150633613
  0.1692084208913509  0.0034376689112145  0.5026286374997431
  0.0026703915370005  0.1699894667599229  0.5026241847933094
  0.0856045543049423  0.0863763330079226  0.4192552404643201
  0.2519147981837344  0.2526712243883518  0.4191988494561457
  0.2526999492635928  0.0868545954778495  0.5858100620433090
  0.0860915894291071  0.2534793844788055  0.5858051955929505
  0.0025618982022125  0.0033430413365678  0.6694734695991192
  0.1693536716137281  0.1701275367728525  0.6691936373995072
  0.1690738058372221  0.0033517768830760  0.8359906220760008
  0.0025774815840611  0.1698502181544576  0.8359862254176385
  0.0859282458299468  0.0867027842584649  0.7526282030401495
  0.2527043498610843  0.2534779541563575  0.7524873374259752
  0.2524589362460436  0.0865709708196510  0.9191375855493912
  0.0857990308496034  0.2532308837323771  0.9191356169048499
  0.0020483951616268  0.3364829866985216  0.0021171508033426
  0.1689954914582265  0.5033353947114000  0.0026411574961996
  0.1671520349203121  0.3363623887240931  0.1674902621485292
  0.0022578177128944  0.5032512035926888  0.1693550805612026
  0.0846613992414445  0.4200730435523967  0.0849551100147196
  0.2524422225049927  0.5867292278571477  0.0858797795542880
  0.2495430705426508  0.4199246662237474  0.2497511598768040
  0.0856755117002752  0.5866179384340413  0.2526583241810164
  0.0023419976833190  0.3365183960374460  0.3359919978810854
  0.1688436434952828  0.5032607083293812  0.3360607629383126
  0.1693447614816012  0.3370710935896333  0.5022645838157802
  0.0023323582469563  0.5033347356197621  0.5028092344785003
  0.0854988671988783  0.4200520138708134  0.4192747353058738
  0.2495688313402158  0.5895208453083418  0.4194043870732863
  0.2518893594051317  0.4201518309401282  0.5866589521908300
  0.0854250312174287  0.5868281766229532  0.5862285925942751
  0.0026673342964229  0.3366977024923439  0.6693296936694858
  0.1687167760623172  0.5035326880611608  0.6698349569444989
  0.1692229036713845  0.3366978964461911  0.8359017240746462
  0.0024065118996440  0.5034636775387860  0.8361643756929886
  0.0855829800061488  0.4200917356868181  0.7529718953714736
  0.2522997886068151  0.5868284258485583  0.7531388214590065
  0.2523775413766236  0.4199581460188819  0.9194248775222869
  0.0855974767311218  0.5867077538538230  0.9195498519876308
  0.0022082158253966  0.6699254174808656  0.0029606163356437
  0.1689807875096515  0.8365948442140990  0.0027507954306065
  0.1691511109201198  0.6699345552199570  0.1693885465487763
  0.0022188422805024  0.8363673743893715  0.1693997513790972
  0.0856766079425788  0.7532147724651743  0.0861192201364781
  0.2523453156706976  0.9199441159489694  0.0858723405896783
  0.2524493018399457  0.7534535702954279  0.2525648461093551
  0.0855991270206697  0.9197770576057697  0.2525800096103807
  0.0022565959717050  0.6699558526352146  0.3360699728013536
  0.1690069212893533  0.8366892410505240  0.3359985333933446
  0.1671525025667951  0.6718205363157810  0.5029687704806691
  0.0020732923941907  0.8371978517472078  0.5028569508847611
  0.0846730106153530  0.7543500001438072  0.4192844373135230
  0.2523745390548378  0.9199373158136142  0.4193891685455562
  0.2522017028086550  0.7536540229685498  0.5863135054807659
  0.0858031535423337  0.9201937169857232  0.5860516585132126
  0.0022659119153102  0.6701379381546730  0.6696980848180205
  0.1689903322426548  0.8369592178338882  0.6695537805149206
  0.1688616780628716  0.6701299638265619  0.8362870006814003
  0.0023650040413673  0.8366263042757646  0.8362100640819058
  0.0857125099903450  0.7534205293496130  0.7528380045253447
  0.2524644138077190  0.9201965370281994  0.7527563403916211
  0.2523542399666377  0.7534597269802992  0.9193971672674511
  0.0857276472601430  0.9199393110437797  0.9194048861479399
  0.3357115027725711  0.0028141423741859  0.0021148501632158
  0.5025668813379959  0.1697647925074552  0.0026336584109215
  0.5024846400989399  0.0030210954998229  0.1693470865123572
  0.3355935467100222  0.1679095146861774  0.1674812415189672
  0.4193074139814089  0.0854245894964300  0.0849461146326393
  0.5859656885300597  0.2532077737722831  0.0858714551852035
  0.5858544659320268  0.0864365751011354  0.2526484415779781
  0.4191599705208427  0.2502950598941379  0.2497399191607647
  0.3357451330182833  0.0031038312792621  0.3359903201514737
  0.5024910927793855  0.1695971836371516  0.3360527096253056
  0.5025662687106782  0.0030960903876643  0.5028095378258310
  0.3363034022290465  0.1700947659690592  0.5022718020535184
  0.4192822414022456  0.0862565199521229  0.4192724915785995
  0.5887369052703527  0.2503333784644859  0.4193985689421889
  0.5860626584781196  0.0861871240391474  0.5862273472926789
  0.4193867518607739  0.2526048732899661  0.5866972226123369
  0.3359200648233943  0.0034342451980640  0.6693371431862936
  0.5027705480350972  0.1694513857227626  0.6698625980397344
  0.5026930989996810  0.0031645819682250  0.8361751339509433
  0.3359243670177185  0.1699946682631402  0.8359021237600684
  0.4193164706801538  0.0863350907025790  0.7529905914821278
  0.5860568576545903  0.2530715889541030  0.7531374845088716
  0.5859410930578483  0.0863689526420042  0.9195428679598601
  0.4191867305557350  0.2531500861694241  0.9194223326960583
  0.3356923019085136  0.3364628963180912  0.0026124735430867
  0.5022936906169434  0.5030617115692657  0.0027779485642254
  0.5023143268429350  0.3362211430394024  0.1690086209307556
  0.3354608574712761  0.5030803672323191  0.1690141320305996
  0.4189471014357143  0.4197129544797584  0.0860323879014254
  0.5852346114657770  0.5860022459207169  0.0868497463099324
  0.5853991306920924  0.4192004663896555  0.2531232648615414
  0.4184353177948032  0.5861699108380378  0.2531281699998982
  0.3303336855009680  0.3310865738344278  0.3273669630702907
  0.5062375514430512  0.5070054974702694  0.3323310857569374
  0.5110261192063350  0.3310865900604649  0.5081600664253935
  0.3303658574517181  0.5118191602820338  0.5081287440794319
  0.5854448813566221  0.5862226232953917  0.4200781087210353
  0.5886955440368135  0.4199297903814420  0.5889077596063171
  0.4191579554441223  0.5894931678997359  0.5889219997342903
  0.3362900224246686  0.3370480028683027  0.6692229175156331
  0.5024863254124796  0.5032653026205778  0.6697066933079887
  0.5025703278430506  0.3365217412200875  0.8362253915623141
  0.3357484315679366  0.5033405383493270  0.8362262892567121
  0.4192730120064124  0.4200448785534953  0.7530877006999520
  0.5858652190575201  0.5866366761846460  0.7528808075737133
  0.5858302143418821  0.4198926512152754  0.9195369724730039
  0.4191216818743511  0.5865969208291273  0.9195385794309816
  0.3357028052575055  0.6701455300663599  0.0025509106577117
  0.5024880291207041  0.8367383688691467  0.0025959438567198
  0.5017364494318517  0.6699337942805127  0.1693811408673074
  0.3357018561989496  0.8367843694461432  0.1691875206809740
  0.4189090026790695  0.7536130840137987  0.0857185543421613
  0.5857628664045192  0.9195519870102120  0.0862923562970325
  0.5852327986162564  0.7524882419840658  0.2532958978867078
  0.4191259769272963  0.9198132618812508  0.2526952856653951
  0.3354575843243885  0.6702969893988804  0.3362349918402454
  0.5022932579441998  0.8365489981465055  0.3362671931824048
  0.5023242944208186  0.6703040717119586  0.5030847389200632
  0.3356886433991028  0.8367169752381658  0.5028687946832470
  0.4189386249706072  0.7533157042953496  0.4196060470736926
  0.5858318287567350  0.9198027158445753  0.4194409252004667
  0.5859736493252352  0.7534526273399206  0.5860815748630981
  0.4191777456500754  0.9199276157895360  0.5861483927175577
  0.3355653339157241  0.6718157513627755  0.6713782421550816
  0.5025682799523762  0.8366928945891078  0.6695568689383523
  0.5024858365436087  0.6699620519536061  0.8363019161093531
  0.3357050898475631  0.8371836110010465  0.8364834514804385
  0.4192917708879058  0.7543262146750211  0.7538513301203791
  0.5859422381200300  0.9197813511593447  0.7529604977058568
  0.5857628526722511  0.7530271620967394  0.9197715890318801
  0.4192173801001181  0.9199845587398375  0.9193318966410549
  0.6691590853418951  0.0029786697689994  0.0029529158362100
  0.8358297934180728  0.1697536458504831  0.0027481158138090
  0.8356041085692165  0.0029877368005601  0.1693979079221321
  0.6691697679929216  0.1699150877725476  0.1693796988721041
  0.7524525070300108  0.0864423460178882  0.0861121937108525
  0.9191777603593868  0.2531164534131733  0.0858733214705304
  0.9190103706889485  0.0863710238070011  0.2525790648385901
  0.7526817895959332  0.2532167748054729  0.2525605586006247
  0.6691927836374332  0.0030231878763377  0.3360640769669427
  0.8359218978996313  0.1697806877896601  0.3359951233124389
  0.8364310427986978  0.0028479738212245  0.5028509522041789
  0.6710451297886373  0.1679223548929291  0.5029613013436500
  0.7535811876493215  0.0854453158515893  0.4192783269507618
  0.9191672350369825  0.2531527523489815  0.4193857885824105
  0.9194206037300959  0.0865859051396027  0.5860438874184734
  0.7528732289314451  0.2529802843854050  0.5863027714940061
  0.6693737215661504  0.0030330965956236  0.6696953735934618
  0.8361830597399045  0.1697723916281652  0.6695425756038216
  0.8358536793833722  0.0031417385228131  0.8362060849700177
  0.6693633559248025  0.1696370470181748  0.8362814142642342
  0.7526517735207391  0.0864893532208112  0.7528298678679431
  0.9194265695642546  0.2532407484451136  0.7527458444307421
  0.9191705841448272  0.0865001032057955  0.9194015375216367
  0.7526965099442657  0.2531259835557857  0.9193909614694585
  0.6693816342565262  0.3364721970296288  0.0025456234753266
  0.8359792464465491  0.5032525433947270  0.0025906157413082
  0.8360176529203595  0.3364714131637760  0.1691892334140258
  0.6691667466948388  0.5025016457404826  0.1693773535302169
  0.7528507534787011  0.4196762737149033  0.0857143243118399
  0.9187856406186564  0.5865245179428000  0.0862977435667055
  0.9190453166140339  0.4198953677683963  0.2526996147904857
  0.7517146529566057  0.5860007732405169  0.2532963409944907
  0.6695197979771789  0.3362214302900164  0.3362322309067833
  0.8357756117733903  0.5030621398323312  0.3362676016311732
  0.8359423931014599  0.3364658810976154  0.5028632468738877
  0.6695197368810972  0.5030928519997926  0.5030783829473006
  0.7525357245555077  0.4197090243643152  0.4196006820275179
  0.9190320664537273  0.5865966234227055  0.4194437247180663
  0.9191549810398372  0.4199530339706710  0.5861446751413762
  0.7526714544096740  0.5867395181094115  0.5860785687266478
  0.6710291384206218  0.3363427471467283  0.6713636909952981
  0.8359184486038432  0.5033417150192693  0.6695540271636754
  0.8364135776626230  0.3364794651361772  0.8364724836376107
  0.6691936607154443  0.5032577703389260  0.8362998598842639
  0.7535482712209400  0.4200621435364064  0.7538410203382473
  0.9190097415974531  0.5867116351924344  0.7529614818618835
  0.9192252094018071  0.4199846476181163  0.9193207994502611
  0.7522624133255340  0.5865289229696302  0.9197728055555634
  0.6687861143212994  0.6695519347094664  0.0033019360738336
  0.8356163452556971  0.8363875754397583  0.0029617531607926
  0.8352511497703503  0.6695430812425085  0.1697713304904266
  0.6687797590283125  0.8360198047554429  0.1697696381008320
  0.7521442032837135  0.7529098119953147  0.0864097289082444
  0.9189860156733536  0.9197521640002057  0.0861202043569523
  0.9187988307970117  0.7530345592463439  0.2527687578253699
  0.7522738730563959  0.9195645726861720  0.2527665532307122
  0.6691988803184056  0.6699706887590108  0.3368033893271253
  0.8359914417178766  0.8367557848454050  0.3360862208572756
  0.8360045538397943  0.6701497825816579  0.5028542807074171
  0.6693861462238376  0.8367780604262925  0.5028524586953635
  0.7528541725503507  0.7536215334412133  0.4196526449041698
  0.9192567877855132  0.9200246159925405  0.4193723442648412
  0.9191744053144977  0.7534569079311865  0.5861709089920141
  0.7526948113075489  0.9199463865505084  0.5861676218222455
  0.6691748119786474  0.6699470910733597  0.6694128426749730
  0.8358210943654953  0.8365900910606126  0.6695783433098421
  0.8355988165418787  0.6699289247152583  0.8363503040595331
  0.6691583097656759  0.8363672992618468  0.8363468662408391
  0.7524356031214987  0.7532040639600215  0.7528782932326312
  0.9191732098791553  0.9199471772248479  0.7528302208414790
  0.9189898908683288  0.7532111133620696  0.9195988375395899
  0.7524426090976557  0.9197596716430745  0.9195921765173984
  0.4651013485419120  0.3862328312815930  0.4525676504011340
  0.3859056206030826  0.3866401027375985  0.3728573227107973
  0.3855854168235017  0.4660405093585261  0.4524764750171179
 
  0.00000000E+00  0.00000000E+00  0.00000000E+00
  0.00000000E+00  0.00000000E+00  0.00000000E+00
  0.00000000E+00  0.00000000E+00  0.00000000E+00
  0.00000000E+00  0.00000000E+00  0.00000000E+00
  0.00000000E+00  0.00000000E+00  0.00000000E+00
  0.00000000E+00  0.00000000E+00  0.00000000E+00
  0.00000000E+00  0.00000000E+00  0.00000000E+00
  0.00000000E+00  0.00000000E+00  0.00000000E+00
  0.00000000E+00  0.00000000E+00  0.00000000E+00
  0.00000000E+00  0.00000000E+00  0.00000000E+00
  0.00000000E+00  0.00000000E+00  0.00000000E+00
  0.00000000E+00  0.00000000E+00  0.00000000E+00
  0.00000000E+00  0.00000000E+00  0.00000000E+00
  0.00000000E+00  0.00000000E+00  0.00000000E+00
  0.00000000E+00  0.00000000E+00  0.00000000E+00
  0.00000000E+00  0.00000000E+00  0.00000000E+00
  0.00000000E+00  0.00000000E+00  0.00000000E+00
  0.00000000E+00  0.00000000E+00  0.00000000E+00
  0.00000000E+00  0.00000000E+00  0.00000000E+00
  0.00000000E+00  0.00000000E+00  0.00000000E+00
  0.00000000E+00  0.00000000E+00  0.00000000E+00
  0.00000000E+00  0.00000000E+00  0.00000000E+00
  0.00000000E+00  0.00000000E+00  0.00000000E+00
  0.00000000E+00  0.00000000E+00  0.00000000E+00
  0.00000000E+00  0.00000000E+00  0.00000000E+00
  0.00000000E+00  0.00000000E+00  0.00000000E+00
  0.00000000E+00  0.00000000E+00  0.00000000E+00
  0.00000000E+00  0.00000000E+00  0.00000000E+00
  0.00000000E+00  0.00000000E+00  0.00000000E+00
  0.00000000E+00  0.00000000E+00  0.00000000E+00
  0.00000000E+00  0.00000000E+00  0.00000000E+00
  0.00000000E+00  0.00000000E+00  0.00000000E+00
  0.00000000E+00  0.00000000E+00  0.00000000E+00
  0.00000000E+00  0.00000000E+00  0.00000000E+00
  0.00000000E+00  0.00000000E+00  0.00000000E+00
  0.00000000E+00  0.00000000E+00  0.00000000E+00
  0.00000000E+00  0.00000000E+00  0.00000000E+00
  0.00000000E+00  0.00000000E+00  0.00000000E+00
  0.00000000E+00  0.00000000E+00  0.00000000E+00
  0.00000000E+00  0.00000000E+00  0.00000000E+00
  0.00000000E+00  0.00000000E+00  0.00000000E+00
  0.00000000E+00  0.00000000E+00  0.00000000E+00
  0.00000000E+00  0.00000000E+00  0.00000000E+00
  0.00000000E+00  0.00000000E+00  0.00000000E+00
  0.00000000E+00  0.00000000E+00  0.00000000E+00
  0.00000000E+00  0.00000000E+00  0.00000000E+00
  0.00000000E+00  0.00000000E+00  0.00000000E+00
  0.00000000E+00  0.00000000E+00  0.00000000E+00
  0.00000000E+00  0.00000000E+00  0.00000000E+00
  0.00000000E+00  0.00000000E+00  0.00000000E+00
  0.00000000E+00  0.00000000E+00  0.00000000E+00
  0.00000000E+00  0.00000000E+00  0.00000000E+00
  0.00000000E+00  0.00000000E+00  0.00000000E+00
  0.00000000E+00  0.00000000E+00  0.00000000E+00
  0.00000000E+00  0.00000000E+00  0.00000000E+00
  0.00000000E+00  0.00000000E+00  0.00000000E+00
  0.00000000E+00  0.00000000E+00  0.00000000E+00
  0.00000000E+00  0.00000000E+00  0.00000000E+00
  0.00000000E+00  0.00000000E+00  0.00000000E+00
  0.00000000E+00  0.00000000E+00  0.00000000E+00
  0.00000000E+00  0.00000000E+00  0.00000000E+00
  0.00000000E+00  0.00000000E+00  0.00000000E+00
  0.00000000E+00  0.00000000E+00  0.00000000E+00
  0.00000000E+00  0.00000000E+00  0.00000000E+00
  0.00000000E+00  0.00000000E+00  0.00000000E+00
  0.00000000E+00  0.00000000E+00  0.00000000E+00
  0.00000000E+00  0.00000000E+00  0.00000000E+00
  0.00000000E+00  0.00000000E+00  0.00000000E+00
  0.00000000E+00  0.00000000E+00  0.00000000E+00
  0.00000000E+00  0.00000000E+00  0.00000000E+00
  0.00000000E+00  0.00000000E+00  0.00000000E+00
  0.00000000E+00  0.00000000E+00  0.00000000E+00
  0.00000000E+00  0.00000000E+00  0.00000000E+00
  0.00000000E+00  0.00000000E+00  0.00000000E+00
  0.00000000E+00  0.00000000E+00  0.00000000E+00
  0.00000000E+00  0.00000000E+00  0.00000000E+00
  0.00000000E+00  0.00000000E+00  0.00000000E+00
  0.00000000E+00  0.00000000E+00  0.00000000E+00
  0.00000000E+00  0.00000000E+00  0.00000000E+00
  0.00000000E+00  0.00000000E+00  0.00000000E+00
  0.00000000E+00  0.00000000E+00  0.00000000E+00
  0.00000000E+00  0.00000000E+00  0.00000000E+00
  0.00000000E+00  0.00000000E+00  0.00000000E+00
  0.00000000E+00  0.00000000E+00  0.00000000E+00
  0.00000000E+00  0.00000000E+00  0.00000000E+00
  0.00000000E+00  0.00000000E+00  0.00000000E+00
  0.00000000E+00  0.00000000E+00  0.00000000E+00
  0.00000000E+00  0.00000000E+00  0.00000000E+00
  0.00000000E+00  0.00000000E+00  0.00000000E+00
  0.00000000E+00  0.00000000E+00  0.00000000E+00
  0.00000000E+00  0.00000000E+00  0.00000000E+00
  0.00000000E+00  0.00000000E+00  0.00000000E+00
  0.00000000E+00  0.00000000E+00  0.00000000E+00
  0.00000000E+00  0.00000000E+00  0.00000000E+00
  0.00000000E+00  0.00000000E+00  0.00000000E+00
  0.00000000E+00  0.00000000E+00  0.00000000E+00
  0.00000000E+00  0.00000000E+00  0.00000000E+00
  0.00000000E+00  0.00000000E+00  0.00000000E+00
  0.00000000E+00  0.00000000E+00  0.00000000E+00
  0.00000000E+00  0.00000000E+00  0.00000000E+00
  0.00000000E+00  0.00000000E+00  0.00000000E+00
  0.00000000E+00  0.00000000E+00  0.00000000E+00
  0.00000000E+00  0.00000000E+00  0.00000000E+00
  0.00000000E+00  0.00000000E+00  0.00000000E+00
  0.00000000E+00  0.00000000E+00  0.00000000E+00
  0.00000000E+00  0.00000000E+00  0.00000000E+00
  0.00000000E+00  0.00000000E+00  0.00000000E+00
  0.00000000E+00  0.00000000E+00  0.00000000E+00
  0.00000000E+00  0.00000000E+00  0.00000000E+00
  0.00000000E+00  0.00000000E+00  0.00000000E+00
  0.00000000E+00  0.00000000E+00  0.00000000E+00
  0.00000000E+00  0.00000000E+00  0.00000000E+00
  0.00000000E+00  0.00000000E+00  0.00000000E+00
  0.00000000E+00  0.00000000E+00  0.00000000E+00
  0.00000000E+00  0.00000000E+00  0.00000000E+00
  0.00000000E+00  0.00000000E+00  0.00000000E+00
  0.00000000E+00  0.00000000E+00  0.00000000E+00
  0.00000000E+00  0.00000000E+00  0.00000000E+00
  0.00000000E+00  0.00000000E+00  0.00000000E+00
  0.00000000E+00  0.00000000E+00  0.00000000E+00
  0.00000000E+00  0.00000000E+00  0.00000000E+00
  0.00000000E+00  0.00000000E+00  0.00000000E+00
  0.00000000E+00  0.00000000E+00  0.00000000E+00
  0.00000000E+00  0.00000000E+00  0.00000000E+00
  0.00000000E+00  0.00000000E+00  0.00000000E+00
  0.00000000E+00  0.00000000E+00  0.00000000E+00
  0.00000000E+00  0.00000000E+00  0.00000000E+00
  0.00000000E+00  0.00000000E+00  0.00000000E+00
  0.00000000E+00  0.00000000E+00  0.00000000E+00
  0.00000000E+00  0.00000000E+00  0.00000000E+00
  0.00000000E+00  0.00000000E+00  0.00000000E+00
  0.00000000E+00  0.00000000E+00  0.00000000E+00
  0.00000000E+00  0.00000000E+00  0.00000000E+00
  0.00000000E+00  0.00000000E+00  0.00000000E+00
  0.00000000E+00  0.00000000E+00  0.00000000E+00
  0.00000000E+00  0.00000000E+00  0.00000000E+00
  0.00000000E+00  0.00000000E+00  0.00000000E+00
  0.00000000E+00  0.00000000E+00  0.00000000E+00
  0.00000000E+00  0.00000000E+00  0.00000000E+00
  0.00000000E+00  0.00000000E+00  0.00000000E+00
  0.00000000E+00  0.00000000E+00  0.00000000E+00
  0.00000000E+00  0.00000000E+00  0.00000000E+00
  0.00000000E+00  0.00000000E+00  0.00000000E+00
  0.00000000E+00  0.00000000E+00  0.00000000E+00
  0.00000000E+00  0.00000000E+00  0.00000000E+00
  0.00000000E+00  0.00000000E+00  0.00000000E+00
  0.00000000E+00  0.00000000E+00  0.00000000E+00
  0.00000000E+00  0.00000000E+00  0.00000000E+00
  0.00000000E+00  0.00000000E+00  0.00000000E+00
  0.00000000E+00  0.00000000E+00  0.00000000E+00
  0.00000000E+00  0.00000000E+00  0.00000000E+00
  0.00000000E+00  0.00000000E+00  0.00000000E+00
  0.00000000E+00  0.00000000E+00  0.00000000E+00
  0.00000000E+00  0.00000000E+00  0.00000000E+00
  0.00000000E+00  0.00000000E+00  0.00000000E+00
  0.00000000E+00  0.00000000E+00  0.00000000E+00
  0.00000000E+00  0.00000000E+00  0.00000000E+00
  0.00000000E+00  0.00000000E+00  0.00000000E+00
  0.00000000E+00  0.00000000E+00  0.00000000E+00
  0.00000000E+00  0.00000000E+00  0.00000000E+00
  0.00000000E+00  0.00000000E+00  0.00000000E+00
  0.00000000E+00  0.00000000E+00  0.00000000E+00
  0.00000000E+00  0.00000000E+00  0.00000000E+00
  0.00000000E+00  0.00000000E+00  0.00000000E+00
  0.00000000E+00  0.00000000E+00  0.00000000E+00
  0.00000000E+00  0.00000000E+00  0.00000000E+00
  0.00000000E+00  0.00000000E+00  0.00000000E+00
  0.00000000E+00  0.00000000E+00  0.00000000E+00
  0.00000000E+00  0.00000000E+00  0.00000000E+00
  0.00000000E+00  0.00000000E+00  0.00000000E+00
  0.00000000E+00  0.00000000E+00  0.00000000E+00
  0.00000000E+00  0.00000000E+00  0.00000000E+00
  0.00000000E+00  0.00000000E+00  0.00000000E+00
  0.00000000E+00  0.00000000E+00  0.00000000E+00
  0.00000000E+00  0.00000000E+00  0.00000000E+00
  0.00000000E+00  0.00000000E+00  0.00000000E+00
  0.00000000E+00  0.00000000E+00  0.00000000E+00
  0.00000000E+00  0.00000000E+00  0.00000000E+00
  0.00000000E+00  0.00000000E+00  0.00000000E+00
  0.00000000E+00  0.00000000E+00  0.00000000E+00
  0.00000000E+00  0.00000000E+00  0.00000000E+00
  0.00000000E+00  0.00000000E+00  0.00000000E+00
  0.00000000E+00  0.00000000E+00  0.00000000E+00
  0.00000000E+00  0.00000000E+00  0.00000000E+00
  0.00000000E+00  0.00000000E+00  0.00000000E+00
  0.00000000E+00  0.00000000E+00  0.00000000E+00
  0.00000000E+00  0.00000000E+00  0.00000000E+00
  0.00000000E+00  0.00000000E+00  0.00000000E+00
  0.00000000E+00  0.00000000E+00  0.00000000E+00
  0.00000000E+00  0.00000000E+00  0.00000000E+00
  0.00000000E+00  0.00000000E+00  0.00000000E+00
  0.00000000E+00  0.00000000E+00  0.00000000E+00
  0.00000000E+00  0.00000000E+00  0.00000000E+00
  0.00000000E+00  0.00000000E+00  0.00000000E+00
  0.00000000E+00  0.00000000E+00  0.00000000E+00
  0.00000000E+00  0.00000000E+00  0.00000000E+00
  0.00000000E+00  0.00000000E+00  0.00000000E+00
  0.00000000E+00  0.00000000E+00  0.00000000E+00
  0.00000000E+00  0.00000000E+00  0.00000000E+00
  0.00000000E+00  0.00000000E+00  0.00000000E+00
  0.00000000E+00  0.00000000E+00  0.00000000E+00
  0.00000000E+00  0.00000000E+00  0.00000000E+00
  0.00000000E+00  0.00000000E+00  0.00000000E+00
  0.00000000E+00  0.00000000E+00  0.00000000E+00
  0.00000000E+00  0.00000000E+00  0.00000000E+00
  0.00000000E+00  0.00000000E+00  0.00000000E+00
  0.00000000E+00  0.00000000E+00  0.00000000E+00
  0.00000000E+00  0.00000000E+00  0.00000000E+00
  0.00000000E+00  0.00000000E+00  0.00000000E+00
  0.00000000E+00  0.00000000E+00  0.00000000E+00
  0.00000000E+00  0.00000000E+00  0.00000000E+00
  0.00000000E+00  0.00000000E+00  0.00000000E+00
  0.00000000E+00  0.00000000E+00  0.00000000E+00
  0.00000000E+00  0.00000000E+00  0.00000000E+00
  0.00000000E+00  0.00000000E+00  0.00000000E+00
  0.00000000E+00  0.00000000E+00  0.00000000E+00
  0.00000000E+00  0.00000000E+00  0.00000000E+00
  0.00000000E+00  0.00000000E+00  0.00000000E+00
