GaN                                     
    1.000000000000000     
    15.8909244537000003    0.0000000000000000    0.0000000000000000
     0.0000000000000000   16.5143318175999987    0.0000000000000000
     0.0000000000000000    0.0000000000000000   15.4982528686999999
   Ga   N    H 
   179   180     1
Direct
  0.1002592505443541  0.0557482922143625  0.3330896405261899
  0.1001821816714701  0.0557057510916742  0.6664303598918058
  0.1000751088943009  0.0555961211155829  0.9997890961681674
  0.1005083379365072  0.3890200814681121  0.3330511966993926
  0.1002583319882496  0.3889998854805600  0.6664240986457491
  0.1002292962197971  0.3889012387106156  0.9998038818423365
  0.1002235847254900  0.7224002331719631  0.3330725830007857
  0.1001803012669389  0.7224014306107657  0.6664541016890473
  0.1000912361645570  0.7222991227945423  0.9997833784778078
  0.3003799533431318  0.0557846176285085  0.3330628722059500
  0.3001466345263857  0.0556392173175606  0.6664638880173651
  0.3001174608067141  0.0555898061623060  0.9998184642345426
  0.3008543130937436  0.3892207161764075  0.3332995196138474
  0.3000604615351722  0.3890097158544564  0.6663473172057479
  0.3002315303513137  0.3889293756419693  0.9996487722547801
  0.3002313744254033  0.7223463252515451  0.3330831388668053
  0.3001150777978379  0.7224293187114763  0.6664832766379704
  0.3000831542074633  0.7222946984643440  0.9997767708771080
  0.5002453178696011  0.0556424141635426  0.3330620956559945
  0.5002126562100472  0.0556304021113433  0.6665065401380107
  0.5000629307326084  0.0556070069698584  0.9997904249543975
  0.5012153188760937  0.3897374393626268  0.3339147264818282
  0.4999869605639720  0.3891371639602579  0.6642907451783810
  0.5002597458689555  0.3890442228687011  0.9991101440430514
  0.5002902497352387  0.7217938627970938  0.3333308474690053
  0.5000782515692120  0.7225678778690587  0.6663780740359346
  0.5000934479900239  0.7222373468435261  0.9996696202755634
  0.7001684462436868  0.0556378679053163  0.3330782958853846
  0.7002111299911294  0.0556798856786639  0.6664498671864988
  0.7000661799687924  0.0556169512814309  0.9997916192657724
  0.6998919240784348  0.3892772234204508  0.3318583446478469
  0.7004897458585677  0.3889486773954970  0.6647682594053992
  0.7000792898908214  0.3890658355063796  0.9992681165210426
  0.7000575604425826  0.7217923360345243  0.3333042702070685
  0.7002730560769097  0.7225793916282522  0.6664392713297451
  0.7000645719642516  0.7222386124004184  0.9996850558424306
  0.9001782714916565  0.0556842804732275  0.3330570622395534
  0.9002155378256452  0.0557046514106307  0.6664339080810017
  0.9000663828594452  0.0556094440536943  0.9998001746314336
  0.9003607766305929  0.3890277501388662  0.3329500853686963
  0.9004976560901899  0.3889779015064719  0.6664708197118666
  0.9002256231506899  0.3889539392949617  0.9996668748288352
  0.9001904270043760  0.7223444606140292  0.3330713092341268
  0.9002586677242767  0.7224029879443303  0.6665050532919727
  0.9000954855037460  0.7223139301351802  0.9997972635288853
  0.0003891877984517  0.2223684590556009  0.3330691000054169
  0.0003458131346545  0.2223420223222593  0.6664294161788329
  0.0001868624413806  0.2222504423579446  0.9997760812302678
  0.0003310684454423  0.5557232949732518  0.3330623322031845
  0.0003204034290630  0.5557128265646951  0.6664443251908376
  0.0001980781770834  0.5556124916770214  0.9997916816783026
  0.0001531059896821  0.8890621727701996  0.3330950833750498
  0.0001502994377567  0.8890686507740183  0.6664522530687520
  0.0000376458781033  0.8889616260976002  0.9997990189605630
  0.2005453322044391  0.2224406483041926  0.3331057007751155
  0.2003060009570921  0.2223404889375581  0.6663679365848296
  0.2001973969474979  0.2222503215896666  0.9998087560215038
  0.2003365945787092  0.5556982217668782  0.3330762891220126
  0.2002061817631615  0.5557316940732518  0.6664750912232604
  0.2001629935601222  0.5555908809646521  0.9997733433659611
  0.2002081234125890  0.8890843734505036  0.3330733464209514
  0.2001159839989310  0.8890484195271267  0.6664459159475555
  0.2000442323479069  0.8889575129133198  0.9997928527782526
  0.4007605311743936  0.2227385930650652  0.3332565391454989
  0.4001369640483564  0.2222071766265940  0.6664139556112300
  0.4001872995072623  0.2223049097106917  0.9996471621487557
  0.4002848064497532  0.5556963636099327  0.3330889175644496
  0.4000911136072844  0.5558039971036181  0.6666426224658649
  0.4001719187637044  0.5556111238508112  0.9994153227034523
  0.4002477584661991  0.8888615123494674  0.3330830188741017
  0.4001041583227154  0.8890902766734231  0.6664764347955828
  0.4000670017578687  0.8889101248069551  0.9998192931962850
  0.6002802775161893  0.2224130929307940  0.3329409214380449
  0.6002493673314691  0.2223194548836810  0.6666681744264276
  0.6001198531810772  0.2223517007745356  0.9994757419589191
  0.6001027853929971  0.5545852694444575  0.3339919664027541
  0.6000546463961038  0.5559561385988029  0.6643059632046172
  0.6001408985520674  0.5555336836660046  0.9991271168745964
  0.6001584112592934  0.8887755351125028  0.3331327491705555
  0.6001689597772324  0.8889998704008170  0.6664067498676848
  0.6000487199374172  0.8889199622554176  0.9998394043085146
  0.8003041026153701  0.2223984342190163  0.3329643173408947
  0.8004482913779255  0.2222452853312226  0.6664802934910478
  0.8001654944573365  0.2223201062241540  0.9996507663711518
  0.8002458365635170  0.5556970903102195  0.3329713067763233
  0.8003373257820304  0.5557840859235801  0.6666735392759416
  0.8001554453173778  0.5556508203368811  0.9995114725375824
  0.8000630899182122  0.8888691496495423  0.3330981124832060
  0.8001911476124020  0.8891220015915119  0.6664826037353667
  0.8000281520574718  0.8889410693998044  0.9998373312366078
  0.1003030410677341  0.2778891970074780  0.1664674029208784
  0.1004518163325396  0.2779982975165594  0.4997490230676432
  0.1002179771592667  0.2778720102352920  0.8330941540485199
  0.1002567299764311  0.6112622832098199  0.1664264139910140
  0.1002446760904173  0.6114288516742509  0.4997675246928482
  0.1001874435438450  0.6112727475905037  0.8331283464556155
  0.1000885047810140  0.9445966673901602  0.1664378294457083
  0.1001810049007096  0.9447881775520087  0.4997651025190475
  0.1000568688327163  0.9445933200258094  0.8331165961696184
  0.3003486238394395  0.2779724151922754  0.1665054555172548
  0.3007530508596504  0.2782914601260685  0.4996660690512358
  0.3001576345936640  0.2778785165660209  0.8330349008654216
  0.3002713280331764  0.6112195211334889  0.1663588311183491
  0.3000190667607382  0.6114872243270516  0.4998373431137088
  0.3000837452903853  0.6113166973904847  0.8331217388863569
  0.3001671225564782  0.9445634675572752  0.1664561976485339
  0.3002087569417443  0.9446349901201215  0.4997819475885472
  0.3000626114804361  0.9445643541753739  0.8331516617779077
  0.5003062245028528  0.2781437708648577  0.1662290502156604
  0.5015321618297139  0.2783817619590821  0.5005621413685467
  0.5000843878298616  0.2779426028441743  0.8326744737657621
  0.5002621375401223  0.6110966424346741  0.1662563891556300
  0.4999747087865838  0.6100565346223012  0.5003221035932599
  0.5001478996233399  0.6113753014760784  0.8326692592730297
  0.5001084947618520  0.9445418000618615  0.1664727506591165
  0.5002259353004705  0.9443927088948605  0.4997997000548615
  0.5000817275549519  0.9445648013431164  0.8331430988416251
  0.7002336653797434  0.2779467996788278  0.1661384488199960
  0.6997063659797782  0.2771060218184216  0.5002224731744100
  0.7002257184779226  0.2779151598255127  0.8328400757142272
  0.7000661468095407  0.6110672158225173  0.1662774863728874
  0.7004910740119251  0.6101302417918850  0.5005758050733512
  0.7001579157419265  0.6113458282885414  0.8326857205679221
  0.7000484191102889  0.9445463609385241  0.1664857612187287
  0.7001637365693785  0.9444874903678953  0.4997893519618110
  0.7000760466752596  0.9445872313733500  0.8331341868289879
  0.9002729688316181  0.2779189625056086  0.1663607616298778
  0.9002927674076878  0.2780109125378186  0.4997807430935182
  0.9002485851087431  0.2779139856134847  0.8330889805708298
  0.9002051928973793  0.6112574484611557  0.1663653895201910
  0.9005145048088292  0.6115163970019172  0.4998292444213306
  0.9003050049359934  0.6113128404787972  0.8331517098034757
  0.9000434733822845  0.9445512340608089  0.1664602530716332
  0.9001525375022695  0.9447207848037800  0.4997763499311966
  0.9000862378084959  0.9446126082485292  0.8331501329739894
  0.0001385334276865  0.1112369917938894  0.1664449405399221
  0.0002462338418257  0.1113809711903126  0.4997597298516108
  0.0001122443296427  0.1112387138652762  0.8331149593365621
  0.0003438220953519  0.4445891438042552  0.1664101649764247
  0.0002423554341514  0.4446782086705991  0.4996942425749354
  0.0002946703501502  0.4445943845845457  0.8331268994690458
  0.0001172571021050  0.7779284941929895  0.1664365967659616
  0.0002587221987987  0.7781266466878654  0.4997844782261424
  0.0001292176313678  0.7779562916853248  0.8331404163070485
  0.2001981757858030  0.1112458075215669  0.1664675839650916
  0.2003613968557295  0.1114135125340174  0.4997532709404435
  0.2001141527505113  0.1112153833799143  0.8331108508747331
  0.2003815094163608  0.4445643280946212  0.1664734076357961
  0.2002194510588711  0.4448774639748170  0.4998522545744556
  0.2001540672549758  0.4445579479215840  0.8330862464901537
  0.2001611083935546  0.7779251492002952  0.1664249412229619
  0.2001196035586388  0.7781107306129065  0.4997681728932526
  0.2000851198558130  0.7779508208480270  0.8331296916707918
  0.4002184664677773  0.1113460870254511  0.1664705533887403
  0.4004629302839764  0.1111721826686317  0.4999115834568860
  0.4000968913569659  0.1111822026720127  0.8331235158570892
  0.4003925744764665  0.4446194299334356  0.1662248546429092
  0.4012414463759698  0.4455720529428578  0.5003073892480714
  0.4000768100050032  0.4445591617139785  0.8326560009536550
  0.4002068150636572  0.7778058121689447  0.1664857264433783
  0.3999914821718158  0.7778916351647529  0.4998802668431793
  0.4000690039735268  0.7779739819890669  0.8331039993115950
  0.6001170036891336  0.1112944746778476  0.1663500775082836
  0.6002214896376354  0.1110001916757364  0.4998317816904750
  0.6001178523475461  0.1111894019302920  0.8331495437983188
  0.6001775380868810  0.4446436477166650  0.1656907005202723
  0.6000554397025968  0.4447080815015610  0.8315657053401853
  0.6001013898945313  0.7777828946917641  0.1665451059888212
  0.6001302942920658  0.7774392877800614  0.4997050861462436
  0.6000996787104504  0.7779653987750448  0.8330694154251974
  0.8001122544455098  0.1112566974948820  0.1664026917640527
  0.8001770494971363  0.1114081252671257  0.4997078773046378
  0.8001339741347934  0.1112252696453401  0.8331285942941377
  0.8002845188740760  0.4446068831995849  0.1661541423791919
  0.8008467462145635  0.4456297713686733  0.5002285005308705
  0.8002895559425243  0.4446242237653542  0.8328285867072639
  0.8000277672775451  0.7778210892103988  0.1665005824420480
  0.8003742734276393  0.7779052194466108  0.4999201930861323
  0.8001500472090213  0.7779928385978295  0.8331444465946676
  0.1001427826714471  0.0557144171865828  0.1254528505251739
  0.1002730431945961  0.0559115791779768  0.4587491477654950
  0.1000878628006174  0.0556880096498154  0.7920873795386092
  0.1003196056368677  0.3889912508023282  0.1254706956269783
  0.1002198869076318  0.3890838534571173  0.4587099069728175
  0.1001688815706030  0.3889620931713902  0.7920720403257639
  0.1001207193263418  0.7223748850573984  0.1254359335921304
  0.1001518849834272  0.7225322258373186  0.4587289414331483
  0.1000971592611605  0.7223830198124547  0.7921117914273959
  0.3002181896807460  0.0557012622012784  0.1254853306432235
  0.3003710033429739  0.0558298525033457  0.4587308854407751
  0.3000963349265049  0.0556426209905572  0.7921131396161085
  0.3003304994873999  0.3890212701555741  0.1253338532767996
  0.3001411113063435  0.3894332560742799  0.4589128950494752
  0.2999948513149120  0.3889439568846049  0.7920193296072133
  0.3001464926162066  0.7223598709780520  0.1254177925504141
  0.2999752163924600  0.7225670723604058  0.4587345069517921
  0.3000625251766904  0.7224275239860647  0.7921333945945231
  0.5001396075770764  0.0556606844072399  0.1254448128264752
  0.5002989788244002  0.0555177572378146  0.4587399869963481
  0.5001242839349292  0.0556715856245596  0.7921460669817750
  0.5002627517621323  0.3890758053182712  0.1248188629646315
  0.4946204185843767  0.3860980047054509  0.4569694368561638
  0.4998039201510686  0.3888710627919307  0.7914859147467024
  0.5001584637505110  0.7222539176201624  0.1253518135291001
  0.4998372882152613  0.7223544750325147  0.4589439108815303
  0.5000568503962245  0.7225816192970430  0.7920528991092627
  0.7001180399400200  0.0556698472904483  0.1254520015150963
  0.7002856506835529  0.0556350799533282  0.4587482304454352
  0.7001471505214119  0.0557005431084853  0.7921092103904472
  0.7002968290556020  0.3890418196518940  0.1250188921812882
  0.7019732127165206  0.3881578993630434  0.4578148583793624
  0.7005046283812575  0.3889211962232986  0.7915443872268197
  0.7000926295941114  0.7222284963212142  0.1253990635907592
  0.7004624768773501  0.7222253789102335  0.4589448596628419
  0.7001943226239296  0.7225596142709876  0.7920949599902251
  0.9001147232767047  0.0556775391517109  0.1254644840849383
  0.9001769930414367  0.0558809111255882  0.4587207561992563
  0.9001295028226804  0.0557035699739400  0.7920866847138374
  0.9003107690016796  0.3890318623129558  0.1253538222240808
  0.8999251570051776  0.3891337654053100  0.4586781610625867
  0.9003297519028512  0.3890192201800388  0.7920628975618630
  0.9001046582456754  0.7223718022959932  0.1254523311138989
  0.9003477344456242  0.7225098674711344  0.4587391499163996
  0.9001550298963391  0.7223949460476226  0.7921448579890519
  0.0002649335205848  0.2223418888253209  0.1254376487587789
  0.0002977390648790  0.2225239222064090  0.4587408141056560
  0.0002115826082244  0.2223290622298638  0.7920778099707156
  0.0002281609098741  0.5556841022399869  0.1254432563794710
  0.0003124154248131  0.5557802186709910  0.4587161105484813
  0.0002187277970992  0.5556764017086929  0.7920953924889064
  0.0000648387667231  0.8890422594162432  0.1254505721659759
  0.0001685967986015  0.8892327974083515  0.4587508459191340
  0.0000644934364903  0.8890519974607419  0.7921056602860895
  0.2003095622494392  0.2223637521244424  0.1254850544820915
  0.2005606960152320  0.2225468520081226  0.4587694449267656
  0.2001541737384552  0.2222978846508275  0.7920440410755256
  0.2002120286098380  0.5556570011566885  0.1254193698846743
  0.2000820909755115  0.5558801986047647  0.4587266762972714
  0.2001260257542358  0.5556832148103836  0.7921257042162312
  0.2001036257309301  0.8890601803065296  0.1254467410254909
  0.2001386337711126  0.8892432486265531  0.4587389128255575
  0.2000491636687879  0.8890555928283034  0.7921083788628777
  0.4003200289370195  0.2224169912109629  0.1253509789645639
  0.4006846686961518  0.2223248846061814  0.4589162834871175
  0.4000699182999402  0.2221960007295809  0.7920686295340092
  0.4002301882708267  0.5556740924225950  0.1250888482925940
  0.3996336287280427  0.5561273221627802  0.4586789877279853
  0.4000273018527204  0.5557877820465756  0.7922081382564932
  0.4001341357503942  0.8889492777030027  0.1254756398824227
  0.4001705447513257  0.8890465267334418  0.4587346045217763
  0.4000604579933046  0.8890897081050543  0.7921193727882292
  0.6002396523529867  0.2224097919432636  0.1251942451443190
  0.6004339350930263  0.2219824058096385  0.4586089546449666
  0.6002452770611950  0.2222900471681976  0.7921842914134598
  0.6001957599247696  0.5556628958096993  0.1248299173915748
  0.6001444514690678  0.5619510594918991  0.4570225867431730
  0.6001661129249404  0.5561649400233192  0.7914937248382820
  0.6000892619565429  0.8889335956587250  0.1255039723321237
  0.6002268203525848  0.8887987039790080  0.4588024490881582
  0.6000981095174400  0.8890891916313927  0.7920836362775301
  0.8002490852051692  0.2223714940483320  0.1253331774574503
  0.8000670046802472  0.2227483146723018  0.4586785200208310
  0.8002782349181234  0.2223224716843329  0.7920709688225147
  0.8002112962630727  0.5556790785111051  0.1252233496223950
  0.8006910402355361  0.5558955428819363  0.4586354973518401
  0.8003459005428722  0.5557473074446514  0.7921833325832418
  0.8000482090131725  0.8889673237623108  0.1255025722453344
  0.8001845029755538  0.8890196759807359  0.4587559424748525
  0.8001146297381775  0.8891013939634157  0.7921268398737911
  0.1004175621286426  0.2778816210887693  0.2921115651836237
  0.1002945624768599  0.2779011057925577  0.6253897228562626
  0.1001745641389224  0.2777952689276038  0.9587645729040892
  0.1002895761430521  0.6112808801702060  0.2920709495152574
  0.1002231280829484  0.6113241694114036  0.6254187737660726
  0.1001508154650978  0.6111926220719938  0.9587818488895213
  0.1001578434000411  0.9446329332801670  0.2920976006375679
  0.1001306300795521  0.9446305332085634  0.6254106361860452
  0.1000316091263608  0.9445027329641105  0.9587750185878923
  0.3005432283359127  0.2780337438519257  0.2921897309747111
  0.3002613697636205  0.2778947548016328  0.6253569573849759
  0.3001542988117955  0.2778032596778097  0.9587191554751618
  0.3002329816733596  0.6112890167690718  0.2919871623091931
  0.3000734871772952  0.6113838803247135  0.6254991318879345
  0.3000905616048293  0.6112118153095604  0.9587484154519984
  0.3002781407475827  0.9446110918063575  0.2921227947489344
  0.3001031334054098  0.9445940018385378  0.6254076795670949
  0.3000623482559693  0.9444913540600561  0.9588109532238343
  0.5006460643081464  0.2782444718392394  0.2918257636895664
  0.5002192574305487  0.2773725290859310  0.6257222063443695
  0.5001345907750038  0.2778383417365038  0.9584381968043855
  0.5003185726905504  0.6108880938374145  0.2917704939380524
  0.4996567483413358  0.6116976353676905  0.6256334256105667
  0.5001374547743207  0.6112035532265455  0.9584212432732845
  0.5002221452874711  0.9445138409267085  0.2921220321216464
  0.5001606326868222  0.9445575275209928  0.6254464762666313
  0.5000616432472652  0.9445043815395279  0.9588098367376050
  0.7003542380059009  0.2780381733409821  0.2919148683776094
  0.7004243014120858  0.2775497886750961  0.6253286483774906
  0.7001825969534315  0.2778810064665977  0.9585329195063993
  0.7001662255616651  0.6108018945908512  0.2918748444085905
  0.7007778483757745  0.6116228250932360  0.6257461229746059
  0.7001979627773964  0.6111902322003345  0.9584515191680645
  0.7001074425228251  0.9445216611237268  0.2921363720702279
  0.7001790517312706  0.9446036941072842  0.6254274488733108
  0.7000442533594716  0.9445130663314919  0.9588035465544252
  0.9003452159421839  0.2779075353513450  0.2920617619946767
  0.9003385549089441  0.2779108764521965  0.6254022804147484
  0.9002019185259843  0.2778380724639866  0.9587363166014022
  0.9002861403346702  0.6112137849358221  0.2920264121634938
  0.9003545554814019  0.6113006429739947  0.6254633878910797
  0.9002277809542866  0.6112070203608451  0.9587764100035757
  0.9000661669823457  0.9445387207206926  0.2921271581915711
  0.9001797336561872  0.9446496987516571  0.6254102912596330
  0.9000281142474660  0.9445156626284749  0.9588083764316989
  0.0002008464813401  0.1112468466205878  0.2920965138968122
  0.0001961735223644  0.1112709654969186  0.6253960942706247
  0.0000641242953646  0.1111563451333869  0.9587722055040236
  0.0003866679022830  0.4445681379883970  0.2921013714227494
  0.0003259738288147  0.4446112314741639  0.6253434033595748
  0.0002401076410679  0.4445052441603606  0.9587697166096426
  0.0001733692602893  0.7779500399199410  0.2920906905021490
  0.0002047601627765  0.7779932245143383  0.6254264814103756
  0.0000855128764088  0.7778724861530130  0.9587908471476527
  0.2002925954548801  0.1112806711301847  0.2921325231045940
  0.2001898733554255  0.1112274827187918  0.6254016527843553
  0.2000980283548073  0.1111328200943459  0.9587976372436023
  0.2005256044977884  0.4445473325011103  0.2921254544782753
  0.2000654828721183  0.4446535905880891  0.6254440304413090
  0.2001671445296027  0.4444774321790980  0.9587574580766202
  0.2002096816481371  0.7779773775089274  0.2920798345909704
  0.2001145302671098  0.7779912560226683  0.6254190040007314
  0.2000665391365547  0.7778704933520135  0.9587821080193040
  0.4003652954739124  0.1114679358197567  0.2921449504704211
  0.4001762654480023  0.1110647627159965  0.6254751744887613
  0.4000881504579005  0.1111587194417195  0.9587739326329965
  0.4006224183781149  0.4447303835092676  0.2917466088540881
  0.3995909801476411  0.4448939630686596  0.6256034319262728
  0.4001305800647151  0.4445125590163051  0.9584137237271250
  0.4003513313603870  0.7777492956162567  0.2921289888601614
  0.4000118919509337  0.7780973834257553  0.6254823461003047
  0.4000790071158153  0.7778436315140093  0.9587637731934106
  0.6002383478837072  0.1112906873069553  0.2920232072719686
  0.6002201055944061  0.1112183674058750  0.6254701448138742
  0.6000747963875649  0.1111690763630482  0.9587851420217754
  0.6004468965019993  0.4445174611964818  0.2913391247118762
  0.6001872460691347  0.4446935104255866  0.6321765190842409
  0.6002077994970291  0.4445196333905441  0.9577759776780256
  0.6001997429343449  0.7776479111216296  0.2922167378866205
  0.6002075256561151  0.7779433212843632  0.6253980172908435
  0.6000874914361713  0.7778537684115648  0.9587506436552595
  0.8001647219674185  0.1112927800865163  0.2920921017479793
  0.8002366543626919  0.1112336385204237  0.6253586687604784
  0.8000770606205984  0.1111890369696212  0.9587769633654171
  0.8002710735265354  0.4444930602178817  0.2919371138722067
  0.8007176461340196  0.4447104688973785  0.6253175036379226
  0.8002378064083066  0.4445184773729825  0.9585320535944231
  0.8000328858045651  0.7777119145017571  0.2921768661660252
  0.8003652992488082  0.7780772810323098  0.6254934437141182
  0.8000937617629139  0.7778598810967187  0.9588070955023990
  0.6488665569922147  0.4177608072707235  0.4794651505017781
 
  0.00000000E+00  0.00000000E+00  0.00000000E+00
  0.00000000E+00  0.00000000E+00  0.00000000E+00
  0.00000000E+00  0.00000000E+00  0.00000000E+00
  0.00000000E+00  0.00000000E+00  0.00000000E+00
  0.00000000E+00  0.00000000E+00  0.00000000E+00
  0.00000000E+00  0.00000000E+00  0.00000000E+00
  0.00000000E+00  0.00000000E+00  0.00000000E+00
  0.00000000E+00  0.00000000E+00  0.00000000E+00
  0.00000000E+00  0.00000000E+00  0.00000000E+00
  0.00000000E+00  0.00000000E+00  0.00000000E+00
  0.00000000E+00  0.00000000E+00  0.00000000E+00
  0.00000000E+00  0.00000000E+00  0.00000000E+00
  0.00000000E+00  0.00000000E+00  0.00000000E+00
  0.00000000E+00  0.00000000E+00  0.00000000E+00
  0.00000000E+00  0.00000000E+00  0.00000000E+00
  0.00000000E+00  0.00000000E+00  0.00000000E+00
  0.00000000E+00  0.00000000E+00  0.00000000E+00
  0.00000000E+00  0.00000000E+00  0.00000000E+00
  0.00000000E+00  0.00000000E+00  0.00000000E+00
  0.00000000E+00  0.00000000E+00  0.00000000E+00
  0.00000000E+00  0.00000000E+00  0.00000000E+00
  0.00000000E+00  0.00000000E+00  0.00000000E+00
  0.00000000E+00  0.00000000E+00  0.00000000E+00
  0.00000000E+00  0.00000000E+00  0.00000000E+00
  0.00000000E+00  0.00000000E+00  0.00000000E+00
  0.00000000E+00  0.00000000E+00  0.00000000E+00
  0.00000000E+00  0.00000000E+00  0.00000000E+00
  0.00000000E+00  0.00000000E+00  0.00000000E+00
  0.00000000E+00  0.00000000E+00  0.00000000E+00
  0.00000000E+00  0.00000000E+00  0.00000000E+00
  0.00000000E+00  0.00000000E+00  0.00000000E+00
  0.00000000E+00  0.00000000E+00  0.00000000E+00
  0.00000000E+00  0.00000000E+00  0.00000000E+00
  0.00000000E+00  0.00000000E+00  0.00000000E+00
  0.00000000E+00  0.00000000E+00  0.00000000E+00
  0.00000000E+00  0.00000000E+00  0.00000000E+00
  0.00000000E+00  0.00000000E+00  0.00000000E+00
  0.00000000E+00  0.00000000E+00  0.00000000E+00
  0.00000000E+00  0.00000000E+00  0.00000000E+00
  0.00000000E+00  0.00000000E+00  0.00000000E+00
  0.00000000E+00  0.00000000E+00  0.00000000E+00
  0.00000000E+00  0.00000000E+00  0.00000000E+00
  0.00000000E+00  0.00000000E+00  0.00000000E+00
  0.00000000E+00  0.00000000E+00  0.00000000E+00
  0.00000000E+00  0.00000000E+00  0.00000000E+00
  0.00000000E+00  0.00000000E+00  0.00000000E+00
  0.00000000E+00  0.00000000E+00  0.00000000E+00
  0.00000000E+00  0.00000000E+00  0.00000000E+00
  0.00000000E+00  0.00000000E+00  0.00000000E+00
  0.00000000E+00  0.00000000E+00  0.00000000E+00
  0.00000000E+00  0.00000000E+00  0.00000000E+00
  0.00000000E+00  0.00000000E+00  0.00000000E+00
  0.00000000E+00  0.00000000E+00  0.00000000E+00
  0.00000000E+00  0.00000000E+00  0.00000000E+00
  0.00000000E+00  0.00000000E+00  0.00000000E+00
  0.00000000E+00  0.00000000E+00  0.00000000E+00
  0.00000000E+00  0.00000000E+00  0.00000000E+00
  0.00000000E+00  0.00000000E+00  0.00000000E+00
  0.00000000E+00  0.00000000E+00  0.00000000E+00
  0.00000000E+00  0.00000000E+00  0.00000000E+00
  0.00000000E+00  0.00000000E+00  0.00000000E+00
  0.00000000E+00  0.00000000E+00  0.00000000E+00
  0.00000000E+00  0.00000000E+00  0.00000000E+00
  0.00000000E+00  0.00000000E+00  0.00000000E+00
  0.00000000E+00  0.00000000E+00  0.00000000E+00
  0.00000000E+00  0.00000000E+00  0.00000000E+00
  0.00000000E+00  0.00000000E+00  0.00000000E+00
  0.00000000E+00  0.00000000E+00  0.00000000E+00
  0.00000000E+00  0.00000000E+00  0.00000000E+00
  0.00000000E+00  0.00000000E+00  0.00000000E+00
  0.00000000E+00  0.00000000E+00  0.00000000E+00
  0.00000000E+00  0.00000000E+00  0.00000000E+00
  0.00000000E+00  0.00000000E+00  0.00000000E+00
  0.00000000E+00  0.00000000E+00  0.00000000E+00
  0.00000000E+00  0.00000000E+00  0.00000000E+00
  0.00000000E+00  0.00000000E+00  0.00000000E+00
  0.00000000E+00  0.00000000E+00  0.00000000E+00
  0.00000000E+00  0.00000000E+00  0.00000000E+00
  0.00000000E+00  0.00000000E+00  0.00000000E+00
  0.00000000E+00  0.00000000E+00  0.00000000E+00
  0.00000000E+00  0.00000000E+00  0.00000000E+00
  0.00000000E+00  0.00000000E+00  0.00000000E+00
  0.00000000E+00  0.00000000E+00  0.00000000E+00
  0.00000000E+00  0.00000000E+00  0.00000000E+00
  0.00000000E+00  0.00000000E+00  0.00000000E+00
  0.00000000E+00  0.00000000E+00  0.00000000E+00
  0.00000000E+00  0.00000000E+00  0.00000000E+00
  0.00000000E+00  0.00000000E+00  0.00000000E+00
  0.00000000E+00  0.00000000E+00  0.00000000E+00
  0.00000000E+00  0.00000000E+00  0.00000000E+00
  0.00000000E+00  0.00000000E+00  0.00000000E+00
  0.00000000E+00  0.00000000E+00  0.00000000E+00
  0.00000000E+00  0.00000000E+00  0.00000000E+00
  0.00000000E+00  0.00000000E+00  0.00000000E+00
  0.00000000E+00  0.00000000E+00  0.00000000E+00
  0.00000000E+00  0.00000000E+00  0.00000000E+00
  0.00000000E+00  0.00000000E+00  0.00000000E+00
  0.00000000E+00  0.00000000E+00  0.00000000E+00
  0.00000000E+00  0.00000000E+00  0.00000000E+00
  0.00000000E+00  0.00000000E+00  0.00000000E+00
  0.00000000E+00  0.00000000E+00  0.00000000E+00
  0.00000000E+00  0.00000000E+00  0.00000000E+00
  0.00000000E+00  0.00000000E+00  0.00000000E+00
  0.00000000E+00  0.00000000E+00  0.00000000E+00
  0.00000000E+00  0.00000000E+00  0.00000000E+00
  0.00000000E+00  0.00000000E+00  0.00000000E+00
  0.00000000E+00  0.00000000E+00  0.00000000E+00
  0.00000000E+00  0.00000000E+00  0.00000000E+00
  0.00000000E+00  0.00000000E+00  0.00000000E+00
  0.00000000E+00  0.00000000E+00  0.00000000E+00
  0.00000000E+00  0.00000000E+00  0.00000000E+00
  0.00000000E+00  0.00000000E+00  0.00000000E+00
  0.00000000E+00  0.00000000E+00  0.00000000E+00
  0.00000000E+00  0.00000000E+00  0.00000000E+00
  0.00000000E+00  0.00000000E+00  0.00000000E+00
  0.00000000E+00  0.00000000E+00  0.00000000E+00
  0.00000000E+00  0.00000000E+00  0.00000000E+00
  0.00000000E+00  0.00000000E+00  0.00000000E+00
  0.00000000E+00  0.00000000E+00  0.00000000E+00
  0.00000000E+00  0.00000000E+00  0.00000000E+00
  0.00000000E+00  0.00000000E+00  0.00000000E+00
  0.00000000E+00  0.00000000E+00  0.00000000E+00
  0.00000000E+00  0.00000000E+00  0.00000000E+00
  0.00000000E+00  0.00000000E+00  0.00000000E+00
  0.00000000E+00  0.00000000E+00  0.00000000E+00
  0.00000000E+00  0.00000000E+00  0.00000000E+00
  0.00000000E+00  0.00000000E+00  0.00000000E+00
  0.00000000E+00  0.00000000E+00  0.00000000E+00
  0.00000000E+00  0.00000000E+00  0.00000000E+00
  0.00000000E+00  0.00000000E+00  0.00000000E+00
  0.00000000E+00  0.00000000E+00  0.00000000E+00
  0.00000000E+00  0.00000000E+00  0.00000000E+00
  0.00000000E+00  0.00000000E+00  0.00000000E+00
  0.00000000E+00  0.00000000E+00  0.00000000E+00
  0.00000000E+00  0.00000000E+00  0.00000000E+00
  0.00000000E+00  0.00000000E+00  0.00000000E+00
  0.00000000E+00  0.00000000E+00  0.00000000E+00
  0.00000000E+00  0.00000000E+00  0.00000000E+00
  0.00000000E+00  0.00000000E+00  0.00000000E+00
  0.00000000E+00  0.00000000E+00  0.00000000E+00
  0.00000000E+00  0.00000000E+00  0.00000000E+00
  0.00000000E+00  0.00000000E+00  0.00000000E+00
  0.00000000E+00  0.00000000E+00  0.00000000E+00
  0.00000000E+00  0.00000000E+00  0.00000000E+00
  0.00000000E+00  0.00000000E+00  0.00000000E+00
  0.00000000E+00  0.00000000E+00  0.00000000E+00
  0.00000000E+00  0.00000000E+00  0.00000000E+00
  0.00000000E+00  0.00000000E+00  0.00000000E+00
  0.00000000E+00  0.00000000E+00  0.00000000E+00
  0.00000000E+00  0.00000000E+00  0.00000000E+00
  0.00000000E+00  0.00000000E+00  0.00000000E+00
  0.00000000E+00  0.00000000E+00  0.00000000E+00
  0.00000000E+00  0.00000000E+00  0.00000000E+00
  0.00000000E+00  0.00000000E+00  0.00000000E+00
  0.00000000E+00  0.00000000E+00  0.00000000E+00
  0.00000000E+00  0.00000000E+00  0.00000000E+00
  0.00000000E+00  0.00000000E+00  0.00000000E+00