SiVH3 a=5.46836113565                   
   1.00000000000000     
    21.8734445426000015    0.0000000000000000    0.0000000000000000
     0.0000000000000000   21.8734445426000015    0.0000000000000000
     0.0000000000000000    0.0000000000000000   21.8734445426000015
   Si   H 
   511     3
Direct
  0.0624733905113007  0.0624158878098667  0.0624472523472322
  0.1874870132084754  0.1874319579644319  0.0625201681528700
  0.1874869173032802  0.0624886318526100  0.1874608121382919
  0.0625464489513922  0.1874318766216880  0.1874608715593502
  0.9999469566315083 -0.0000439386765312  0.9999881983477948
  0.1249594289374616  0.1249742026455006  0.0000442427956689
  0.1249591351197368  0.0000123143648713  0.1250041601858236
  0.0000003349535711  0.1249739092657653  0.1250040668280047
  0.0625228930964430  0.0624612595449470  0.3124311879359850
  0.1875487573570681  0.1875002756689196  0.3125165018798057
  0.1875112931992804  0.0624542167475401  0.4374880266758880
  0.0625053843593850  0.1874612058678045  0.4374911301151503
  0.9999707605746416 -0.0000172152599872  0.2499909525093481
  0.1250189590412469  0.1250340648007510  0.2500322164369291
  0.1249738584594143  0.0000353062689553  0.3749983223518790
  0.0000282372787630  0.1249866318559059  0.3749985409860572
  0.0625081214568583  0.0624511596368994  0.5625241261155713
  0.1872696035833153  0.1872174300732601  0.5626030679193074
  0.1874390449594860  0.0623632878457018  0.6875373478934198
  0.0624168741070176  0.1873851484015833  0.6875426302096569
  0.0000747562828015  0.0000837504716543  0.5000438137172886
  0.1248942869074416  0.1249108350207175  0.5000427830568579
  0.1249513931144446  0.9999260123297388  0.6250553174268133
  0.9999179207637717  0.1249601333865281  0.6250603364166144
  0.0624163326783234  0.0623592481446492  0.8124621163202322
  0.1874522547947611  0.1873991554139003  0.8125134912089781
  0.1874508345688641  0.0624182222664187  0.9374788247062341
  0.0624775423486791  0.1873972386634720  0.9374800088895309
  0.9998921434452842  0.9998976069295377  0.7499959400859333
  0.1249170056467640  0.1249292206496514  0.7500635711680423
  0.1249211358104697 -0.0000510902397591  0.8750166110786096
  0.9999420599839990  0.1249300892639255  0.8750201993488452
  0.0625222094767830  0.3124050900380475  0.0624950903322148
  0.1875150092278001  0.4374646310142398  0.0624819242959725
  0.1875501459363068  0.3124911464826489  0.1875285079098140
  0.0625049224909067  0.4374657460452097  0.1874928473799684
  0.9999725147835596  0.2499622555381452  0.0000168372161083
  0.1249730233077517  0.3749737614146668  0.0000682248721020
  0.1250194969493967  0.2500056262545471  0.1250643053951374
  0.0000263501847786  0.3749737854410858  0.1250189392237948
  0.0624971928019422  0.3124746912070989  0.3125036780429171
  0.1875334109936679  0.4375167541735075  0.3125036747251339
  0.1875325535162157  0.3124717418492740  0.4375472283339779
  0.0624855455217054  0.4374705315432837  0.4375058058744363
  0.0000558518182190  0.2499775094547331  0.2500057012541250
  0.1249968607309979  0.3750405002088313  0.2500786374985468
  0.1249969235597100  0.2500496906692026  0.3750669988499508
  0.9999338208383159  0.3750148712291018  0.3750466689781550
  0.0624605042083490  0.3124390305955159  0.5625043727362230
  0.1874918000190412  0.4374651628542065  0.5625552854565622
  0.1873898332627948  0.3123936001259284  0.6875437657539286
  0.0624377072452671  0.4374575020078637  0.6874969356183042
 -0.0000597656025763  0.2499807032777325  0.5000398101803721
  0.1249707218660566  0.3750125096103115  0.5000780768660672
  0.1248593461930109  0.2499281475223500  0.6250997072410853
  0.9999062600977038  0.3749984513185123  0.6250226101982020
  0.0624634001302558  0.3124093246555279  0.8125284956923511
  0.1870310393566871  0.4374271939402929  0.8129696918663066
  0.1874826927770481  0.3123978483742781  0.9375605361585290
  0.0623969301896966  0.4374252089027247  0.9376310217765894
  0.9999424903549753  0.2499589886116162  0.7500716185023012
  0.1248766960335077  0.3749892775617642  0.7500931078227656
  0.1249605806319656  0.2499632103941436  0.8750638677516259
  0.9999641103516936  0.3749889058443731  0.8750534578246579
  0.0625078073839664  0.5624997808253381  0.0624840284635231
  0.1874423665558116  0.6875087412568274  0.0623942415912462
  0.1872708008063262  0.5625743630580812  0.1872485164750659
  0.0624176916245237  0.6875105370378453  0.1874226860874351
  0.0000730275538651  0.5000205786793921  0.0001173094775954
  0.1249526024227132  0.6250306188538123  0.9999550568185163
  0.1248955151307840  0.5000181624840317  0.1249401334920754
  0.9999146185033195  0.6250322288314070  0.1249971552239443
  0.0624593205676389  0.5624713906747105  0.3124770295793567
  0.1873950367927051  0.6875071934434864  0.3124315543716287
  0.1874933423342407  0.5625189700500722  0.4375025601159484
  0.0624375912954599  0.6874617008595972  0.4374923158860355
  0.9999371192191522  0.5000105384527025  0.2500160550733394
  0.1248611307924847  0.6250671447400761  0.2499651343848749
  0.1249712274784073  0.5000448250750110  0.3750476529587402
  0.9999018633652668  0.6249870089802730  0.3750373944087594
  0.0624603904569773  0.5624530257446732  0.5624883634656173
  0.1874611155083297  0.6875157458623076  0.5625574224930343
  0.1874595233545582  0.5625264894212889  0.6875486509713061
  0.0623868129892845  0.6874529148426084  0.6874814898691479
  0.9998947139992208  0.4999982736170598  0.5000350294988255
  0.1249524158322009  0.6250464718075583  0.5000563349387280
  0.1249522628792799  0.5000223081807622  0.6250806109205224
  0.9998606399486263  0.6249760912607658  0.6250090903746021
  0.0623976951709617  0.5624521717182972  0.8124624309405476
  0.1875464162620468  0.6874436725007601  0.8124217951020999
  0.1875153964416607  0.5624938739468706  0.9374245477733736
  0.0624550807846065  0.6874482620367258  0.9373929665898024
  0.9998655226992272  0.4999983684980929  0.7499949938626428
  0.1248923693001971  0.6250232337944311  0.7500202559138498
  0.1246676286474807  0.5000399787822934  0.8752699055066302
  0.9998913083477277  0.6250056628462328  0.8749734517653355
  0.0624151966511400  0.8124297580620220  0.0623911949786853
  0.1874516105254954  0.9374453576365122  0.0624504894078066
  0.1874545016446843  0.8124785675676260  0.1874317733389094
  0.0624773784117816  0.9374457519129934  0.1874277068075185
  0.9998890428950663  0.7499669560186188  0.9999279072236925
  0.1249209994082314  0.8749852738383350  0.9999796641697314
  0.1249169616316604  0.7500316794220047  0.1249615837836944
  0.9999388246893883  0.8749861302752873  0.1249628722172875
  0.0624647150750097  0.8124921943459843  0.3124424087792141
  0.1874837752354201  0.9375256826451778  0.3124256055895455
  0.1870385412479331  0.8129291886851644  0.4374577723497367
  0.0624002023182254  0.9375953516127131  0.4374514467614998
  0.9999384175011876  0.7500364296792479  0.2499960447993089
  0.1249604455776858  0.8750291355802083  0.2499930301683170
  0.1248786178986422  0.7500570804593096  0.3750220122865403
  0.9999633223268887  0.8750178956069737  0.3750188371911445
  0.0623988580073873  0.8124312299028745  0.5624795193495633
  0.1875118392305925  0.9373963388790053  0.5625179624897002
  0.1875449835272913  0.8123950267558192  0.6874697077836681
  0.0624554758343162  0.9373641758281173  0.6874746230534569
  0.9998642458022425  0.7499614502992366  0.5000303359226705
  0.1246720978058912  0.8752341705419020  0.5000647540228517
  0.1248933327824980  0.7499909533217172  0.6250497528046044
  0.9998932031867489  0.8749452307252237  0.6250302934067667
  0.0624815420113418  0.8124163725083355  0.8124434737525946
  0.1874643980654365  0.9374029221611160  0.8124802531700190
  0.1874656110704277  0.8124507469062495  0.9374324935013504
  0.0624221521656878  0.9374018205356723  0.9374331282280831
  0.9999031165794429  0.7499902043831642  0.7500160464997885
  0.1249826819136501  0.8749349281890468  0.7499949389446542
  0.1249831511788469  0.7499689212112358  0.8749616567049980
  0.9999100807004179  0.8749366660573955  0.8749655588486777
  0.3124570038818284  0.0624628374090216  0.0624968967968407
  0.4375154443242704  0.1874597105324179  0.0624862626825005
  0.4375132190830074  0.0624591195499856  0.1874877032060083
  0.3125394713605747  0.1874996244851960  0.1875265626671135
  0.2499465546548909 -0.0000165717911274  0.0000153192843700
  0.3749517888706868  0.1249865850900216  0.0000725200971239
  0.3749513461468711  0.0000387779608163  0.1250197521232638
  0.2499856801630570  0.1250337057448896  0.1250633042941741
  0.3125218573842837  0.0624494797937829  0.3124969284475982
  0.4375622566541285  0.1874859692526271  0.3124972629599480
  0.4375160671969239  0.0624360872752035  0.4374894129394974
  0.3125181125046744  0.1874844226294796  0.4375415222761467
  0.2499571422334599  0.0000677544420520  0.2500039131050109
  0.3750171980405574  0.1250134631891087  0.2500718806474000
  0.3749872724482151 -0.0000458840817374  0.3750306499708071
  0.2500281962701170  0.1250132122010857  0.3750625024303652
  0.3124913998411099  0.0624046643780868  0.5624938104035417
  0.4375156423057994  0.1874349683712404  0.5625466130175190
  0.4375090865233685  0.0623818960797313  0.6874904063756119
  0.3124473631878117  0.1873373784312361  0.6875381791740564
  0.2499595568909882 -0.0000444007089353  0.5000300511413426
  0.3749948730801007  0.1249833727560178  0.5000682541840863
  0.3749860525790575  0.9999217653591405  0.6250112057427301
  0.2499169528523822  0.1248706026426134  0.6250949783581898
  0.3124601076579321  0.0624067899707454  0.8125247672158483
  0.4374805237624756  0.1869767219771623  0.8129673639501431
  0.4374755146506735  0.0623438098237169  0.9376338696730487
  0.3124501158589269  0.1874233726754995  0.9375634267371739
  0.2499458584835785 -0.0000446971081525  0.7500636798174195
  0.3749733132189184  0.1248920875673091  0.7500930671104546
  0.3749732517432959 -0.0000189234497880  0.8750524173943500
  0.2499440562025662  0.1249753308609377  0.8750638617508486
  0.3125258702670136  0.3124715013113579  0.0624764270868245
  0.4375238767581388  0.4374620285730972  0.0624650478592348
  0.4375644332426771  0.3124669714384818  0.1875136956049857
  0.3125215117028871  0.4375121904467714  0.1875130222322120
  0.2499578530827828  0.2499760599394059  0.0000996228354498
  0.3749943116769447  0.3750059617672269 -0.0000193970568836
  0.3750188545564895  0.2500445772518436  0.1250393427197939
  0.2500307150042316  0.3750371942817191  0.1250392667248386
  0.3124345811601019  0.3123709747313636  0.8126113666942409
  0.4376192394576364  0.4375360288619567  0.8123204239786401
  0.4375385303711714  0.3124433131451406  0.9374445825638476
  0.3125116210391096  0.4374767773934102  0.9374358732874141
  0.2499284315429151  0.2499419351797394  0.7500726085859296
  0.3748793081198181  0.3748885261079944  0.7502285203954377
  0.3749305017159723  0.2499026121711369  0.8751408379649451
  0.2498917909402156  0.3749470186500366  0.8751341172056207
  0.3124983337506052  0.5624664759213770  0.0624341549111023
  0.4375139382837734  0.6874594491822208  0.0624125165891591
  0.4375200758585747  0.5625142345433406  0.1874688723999282
  0.3124515413714492  0.6875053686225943  0.1873701377728738
  0.2499664468901288  0.5000061155886564 -0.0000189807603133
  0.3749933250619625  0.6249834767391141  0.9999476185301428
  0.3750007395452347  0.5000398774742160  0.1250126901479619
  0.2499209842081112  0.6250660333841623  0.1249006393877241
  0.3127320978928521  0.5626240723271368  0.8123248701402696
  0.4375863181089667  0.6876026560128420  0.8123483503528002
  0.4375386014697945  0.5624583362588914  0.9373428000196504
  0.3125099871862285  0.6875110888205791  0.9374630676369800
  0.2492662550187292  0.5000808324093705  0.7508387921082217
  0.3755484171848836  0.6248649658763553  0.7496555090030970
  0.3749895893947576  0.4999657175733572  0.8749109711563757
  0.2500910795211171  0.6250031281052508  0.8749460551732507
  0.3124635503497780  0.8124923133521137  0.0624388901535843
  0.4374757775551139  0.9376017311663699  0.0623759010771931
  0.4374809675100343  0.8129333414322476  0.1870103892329908
  0.3124505627697448  0.9375275569941419  0.1874570733312962
  0.2499495139221505  0.7500351104687211  0.9999837802053924
  0.3749750065346057  0.8750209948594629  0.0000114991522553
  0.3749765245452331  0.7500603706331435  0.1249233507779933
  0.2499456382822588  0.8750304140320530  0.1250067485904225
  0.3124355182035250  0.8125707282973661  0.3124067134759386
  0.4375314274690779  0.9374170777431425  0.3124700793089643
  0.4376061198040735  0.8122981478062432  0.4375634888116914
  0.3125027107913633  0.9374107179211423  0.4375011372584634
  0.2499298500961417  0.7500370880112863  0.2499746716152881
  0.3749283066993689  0.8751033793480549  0.2499362881031770
  0.3748784042498329  0.7501877626500477  0.3749250600799932
  0.2498913383038348  0.8750990255140040  0.3749745814512928
  0.3127267013679478  0.8122990903796329  0.5626504915560029
  0.4375290485375861  0.9373173423871680  0.5624856042493621
  0.4375824353299463  0.8123229165394477  0.6876305054802622
  0.3125046252557264  0.9374355839692563  0.6875382980081490
  0.2492757554999558  0.7507968241741657  0.5001095407394494
  0.3749779586879001  0.8748898748347381  0.4999916321503369
  0.3755436000435789  0.7496328376158476  0.6248911848426097
  0.2500861091829649  0.8749212788658853  0.6250277225743357
  0.3125320484204648  0.8124141036301999  0.8124413281894605
  0.4374935142184884  0.9374290532279470  0.8125348845168963
  0.4374956715368172  0.8125053398056722  0.9374575051701188
  0.3124690058155761  0.9374245874155840  0.9374565986816157
  0.2501028331737077  0.7498902818564558  0.7499148521853468
  0.3750495123346763  0.8749562132539227  0.7500105934687353
  0.3750530046365247  0.7499838784912166  0.8749807122559027
  0.2499739620268160  0.8749494465457592  0.8749777438076780
  0.5625494156277249  0.0624579798607513  0.0624895640918564
  0.6875679063451287  0.1873844688796272  0.0623988788371585
  0.6875655463216669  0.0623683840810067  0.1874168186933300
  0.5626213343483358  0.1872162606694277  0.1872467947559195
  0.5000019993050291  0.0000888944259964  0.0001199784308173
  0.6250152054705940  0.1249574132949038  0.9999635868639937
  0.6250124867221926  0.9999323130471540  0.1249907937063282
  0.4999951888218978  0.1249061308546831  0.1249338794375149
  0.5625204497645429  0.0624101316339909  0.3124624447971703
  0.6875608606323614  0.1873355743357938  0.3124227407275212
  0.6875146066757668  0.0623835970683992  0.4374791321516169
  0.5625676425844162  0.1874355755112606  0.4374896484880158
  0.4999830717363464 -0.0000394902470721  0.2499986295949639
  0.6250500426524881  0.1248708269017395  0.2499525509431215
  0.6249653009081594  0.9999259646725570  0.3750197154976369
  0.5000245250742996  0.1249831201335104  0.3750329425482196
  0.5625038295306544  0.0624045074095681  0.5624769411056704
  0.6875677321447672  0.1873996793113138  0.5625558159003121
  0.6875053469086813  0.0623356803504443  0.6874835065411308
  0.5625793864056047  0.1874014552471467  0.6875506260080797
  0.4999775611724653  0.9999184539801933  0.5000169861126764
  0.6250319254088320  0.1249668460992959  0.5000482439541151
  0.6249648113227161  0.9998836775239653  0.6250048505761974
  0.5000097280319068  0.1249668078916577  0.6250782088612659
  0.5625060046362098  0.0623458015606322  0.8124678177804999
  0.6875071574217301  0.1874791727306714  0.8124424047227212
  0.6875051894694350  0.0624028659680856  0.9374054979287065
  0.5625522373207944  0.1874498560243308  0.9374409037265734
  0.4999863937064918  0.9998871711808093  0.7499953955859955
  0.6250136525742790  0.1249090484905166  0.7500309731552061
  0.6249957986981606  0.9999085923419239  0.8749820477411634
  0.5000227882856104  0.1246846598703662  0.8752761430265121
  0.5625256853910868  0.3124318082903890  0.0624408787941532
  0.6875178428891607  0.4374492894817815  0.0624150496805166
  0.6875628260147784  0.3123900890073722  0.1873663978133513
  0.5625711704471000  0.4374564381732192  0.1874689549634647
  0.4999881969564159  0.2499709880305891 -0.0000116657420291
  0.6249724624565718  0.3749885241186077  0.9999560986737651
  0.6250526692836940  0.2499207804946015  0.1249008661742153
  0.5000292029950605  0.3750036201582653  0.1250123733094881
  0.5626934615322892  0.3126442236493171  0.8123496529538157
  0.6876813582540554  0.4374977191455809  0.8123687686563472
  0.6875771386430608  0.3124386961693681  0.9374773821289066
  0.5625296988474177  0.4374592765511157  0.9373527219499955
  0.5000644384530871  0.2492876663802664  0.7508385556276195
  0.6248544317020781  0.3755322506911446  0.7496904852615752
  0.6249911403416235  0.2500851428424226  0.8749675782145303
  0.4999540377990345  0.3749885397117981  0.8749218378614066
  0.5625086576390168  0.5624465332377913  0.0624361428622098
  0.6875042557355375  0.6874535675610671  0.0623661603689927
  0.6875660852583896  0.5625235500399403  0.1874343489014249
  0.5625785987179466  0.6875166776114253  0.1874365258957195
  0.4999861825407981  0.4999891368445807  0.9999446768692356
  0.6249676710661672  0.6249747965522181  0.9999116085188104
  0.6250338134090498  0.5000168284099908  0.1249989369190582
  0.5000123894635679  0.6250467295303954  0.1249981811238954
  0.5624828331533811  0.5623891920322890  0.8120142109141022
  0.6871924605101496  0.6871322060063467  0.8121259993122295
  0.6874391502533052  0.5623883891515900  0.9373087636159193
  0.5624574536240017  0.6873751511823843  0.9373071651840381
  0.4999173829241147  0.4999252762691673  0.7495144007432921
  0.6248624821439204  0.6248744010830060  0.7492965649154890
  0.6249014582646351  0.5000140665190257  0.8747609748180712
  0.5000211380547523  0.6249102172401377  0.8747506178774426
  0.5625053092411993  0.8124360414934269  0.0623776143263732
  0.6875031161039631  0.9373737017744462  0.0624373777609841
  0.6874999990349197  0.8124069785216481  0.1875173378788277
  0.5625481490088030  0.9374086614980909  0.1874833350558557
  0.4999889183233195  0.7499657361679967  0.9999148047125762
  0.6249945761936473  0.8749526750158878  0.9999401379841915
  0.6250102913785165  0.7499979667930486  0.1249413109648766
  0.5000211792022756  0.8752435875230005  0.1247167331984285
  0.5626849499943011  0.8123160009500074  0.3126830829578536
  0.6875699365855591  0.9374446737742564  0.3124725367598697
  0.6876690294058574  0.8123337664804927  0.4375375011945858
  0.5625199596991726  0.9373233687463867  0.4374907331621180
  0.5000626207961513  0.7508048561909488  0.2493213692724612
  0.6249825088633472  0.8749338620291337  0.2501211640843239
  0.6248397661290510  0.7496547380388932  0.3755749683495586
  0.4999437933750168  0.8748966609256834  0.3750166379405762
  0.5624707609108266  0.8119842373862238  0.5624208195557251
  0.6874336279575419  0.9372793576848022  0.5624182950811542
  0.6871859463143219  0.8120930816115103  0.6871568056880191
  0.5624527657774889  0.9372791563991423  0.6874039051481153
  0.4999021147798818  0.7494925516987179  0.4999528988154004
  0.6248898557450103  0.8747326581037123  0.5000471238936601
  0.6248527744677573  0.7492627878186865  0.6249011072986000
  0.5000123664833643  0.8747275538807368  0.6249371623986409
  0.5623585688476775  0.8126742099317857  0.8127023267673955
  0.6874479866513828  0.9373329129552722  0.8123746148404779
  0.6874484241608415  0.8123487666584037  0.9373624716269158
  0.5624856236323492  0.9376012432784500  0.9376315849769915
  0.5003333059350360  0.7501487032081183  0.7501737386966973
  0.6249626378589841  0.8748235110948471  0.7499408113684696
  0.6249651180121228  0.7499158803732465  0.8748522606772879
  0.5000424171043729  0.8752095458904728  0.8752371043158601
  0.8124895896981223  0.0623638443008119  0.0623966463167195
  0.9375071976738417  0.1873971881817172  0.0624524878974701
  0.9375068674472079  0.0624198417451715  0.1874267495380112
  0.8125393156538054  0.1873991472818183  0.1874291798855443
  0.7499581912189142  0.9999012819433508  0.9999340489029139
  0.8749779137228501  0.1249298683353932  0.9999849289694163
  0.8749754416180562 -0.0000489143999514  0.1249624868268767
  0.7500197707895295  0.1249282454693562  0.1249596108811351
  0.8125527012956811  0.0624077980769043  0.3124344848797730
  0.9375883738525054  0.1874229033108603  0.3124239336054884
  0.9376577226384284  0.0623408318812461  0.4374491892003348
  0.8129892030440724  0.1869733231836278  0.4374538901277795
  0.7500200605477704 -0.0000415717563773  0.2499843874928488
  0.8750191485387713  0.1249748834227283  0.2499884029258921
  0.8750078077041384 -0.0000196931013144  0.3750137104705466
  0.7500477226100360  0.1248904390745749  0.3750119745410048
  0.8124862481283867  0.0623437481431678  0.5624790876657250
  0.9374556921320931  0.1874513504438655  0.5625243654803499
  0.9374203669623976  0.0623982178070250  0.6874800670329255
  0.8124580118534351  0.1874798118828803  0.6874839501631884
  0.7499476991697355  0.9998876733536128  0.5000228836173791
  0.8752302485087382  0.1246824933721140  0.5000661176754307
  0.8749356222550128  0.9999057423163469  0.6250329654604351
  0.7499837204427869  0.1249089391644871  0.6250561818711571
  0.8124745082587430  0.0624282166859892  0.8124549220235213
  0.9374654775240060  0.1874065365421562  0.8124902688129765
  0.9374610570662002  0.0623682703624468  0.9374378012945986
  0.8125149705797274  0.1874067536374925  0.9374450881599642
  0.7499816489194805  0.9999226597181324  0.7500227648434927
  0.8749313188677998  0.1249887927520444  0.7500062424685696
  0.8749322263134411 -0.0000813814474485  0.8749709947746717
  0.7499635353450348  0.1249875534766293  0.8749767287478433
  0.8125542756234029  0.3124057687642416  0.0624399732070988
  0.9376562673990025  0.4374235291839430  0.0623736568230425
  0.9375867860318283  0.3123969008096367  0.1874553435656088
  0.8129889575931917  0.4374240321355392  0.1870063252620265
  0.7500250896060900  0.2499524265205284  0.9999909329718951
  0.8750094996196207  0.3749860051922611  0.0000127739311449
  0.8750197541375607  0.2499606979945694  0.1250061448298453
  0.7500486708179057  0.3749828107995397  0.1249222922069017
  0.8126345968664243  0.3123701143661173  0.3124046920885606
  0.9374554009192934  0.4374809829095533  0.3124867058578832
  0.9374585686583953  0.3124502422858891  0.4375126494509529
  0.8123307127365137  0.4375470171459689  0.4375886842443534
  0.7500261073851298  0.2499396467452927  0.2499712660782407
  0.8750904872147985  0.3749482186581327  0.2499384427507884
  0.8750933659747042  0.2499039973884351  0.3749780763908994
  0.7501795509801651  0.3748877004628235  0.3749255708355397
  0.8123596692966252  0.3126510109412581  0.5626640637262267
  0.9373725228260364  0.4374700051023084  0.5625057287625090
  0.9374943818218401  0.3124463290854371  0.6875513583783404
  0.8123864854434250  0.4375073396173624  0.6876490954511914
  0.7507909251864979  0.2492825350731752  0.5001105842384058
  0.8748606024216650  0.3750039250423265  0.5000120586453108
  0.8749117559933979  0.2500944214339158  0.6250431093284976
  0.7496134125369160  0.3755440036400717  0.6249174007110754
  0.8124832214335612  0.3124608506225194  0.8124612947467019
  0.9374854923544366  0.4374365425494007  0.8125400790622587
  0.9374873144678885  0.3124128486748082  0.9374617013319282
  0.8125667392863366  0.4374318559018002  0.9374645487318825
  0.7498849933517453  0.2501000023522433  0.7499389934221282
  0.8749371764046803  0.3750556643939797  0.7500270234452036
  0.8749427184521320  0.2499778257565493  0.8749898824794302
  0.7499744476597031  0.3750489185792531  0.8749978667014833
  0.8124846347423583  0.5624507236035937  0.0623755589511864
  0.9374175152367860  0.6874510753389407  0.0624334337972188
  0.9374494205633135  0.5624956806799942  0.1874905769851647
  0.8124490350474076  0.6874502549344671  0.1875200660894889
  0.7499505743343541  0.4999934658232133  0.9999172521502503
  0.8749341179585930  0.6250066791593886  0.9999367707018968
  0.8752278685608644  0.5000391949228551  0.1247155193029939
  0.7499793608813989  0.6250258290176164  0.1249412696317480
  0.8123487035016436  0.5626283620357442  0.3126979859512778
  0.9374878748711662  0.6875157798082001  0.3124867820608816
  0.9373682373499065  0.5624681625679975  0.4375115125683944
  0.8123750545850642  0.6876082244776562  0.4375521363703246
  0.7507902437601481  0.5000785907448985  0.2493159410913427
  0.8749003065882546  0.6250087680041100  0.2501375829541248
  0.8748555111650022  0.4999754588516196  0.3750446399808340
  0.7495972648723850  0.6248759048381270  0.3755935610831650
  0.8120437724040710  0.5624037411022177  0.5624477702756913
  0.9373310717743580  0.6873788100286358  0.5624300488156575
  0.9373325684560813  0.5623954719479911  0.6874133680265696
  0.8121519489511967  0.6871347743106778  0.6871651400904127
  0.7494368633801182  0.4999435553687280  0.4999875358031933
  0.8746942275291508  0.6249158291745629  0.5000665965430328
  0.8746998933538128  0.5000245677250679  0.6249546908991639
  0.7492322354703168  0.6248820116708966  0.6249169311108310
  0.8127276042395835  0.5622953828552530  0.8127013525547303
  0.9373792487428775  0.6873960036403350  0.8123714488119013
  0.9376470842176735  0.5624342797649140  0.9376245365246456
  0.8123935066107631  0.6873974392730464  0.9373599625875050
  0.7501224884720873  0.5003296764477746  0.7501897393815853
  0.8747991230061073  0.6249742688427707  0.7499421041511222
  0.8751881301804372  0.5000489005181786  0.8752386315227855
  0.7498979531900694  0.6249729221361757  0.8748518965684134
  0.8124707390467091  0.8124234596704059  0.0624620760396232
  0.9374594717903638  0.9374047625325065  0.0624005276007577
  0.9374613878030380  0.8124554046742575  0.1874426429529780
  0.8125108175344172  0.9374105854577776  0.1874411345592651
  0.7499798400625387  0.7499948115297222  0.9999512136256984
  0.8749295492886220  0.8749394675750707  0.9999496285331914
  0.8749240036483438  0.7499735864192889  0.1250254620603784
  0.7499575480837133  0.8749426219362170  0.1250230363941548
  0.8124732993093819  0.8124238212726518  0.3125005153029010
  0.9374853857450816  0.9374259606622504  0.3124435393280252
  0.9374818514143670  0.8125047853895220  0.4374696220661201
  0.8125623553181870  0.9374325476162834  0.4374623783638993
  0.7498716453791828  0.7499011927107350  0.2501424227983441
  0.8749352397312571  0.8749531255097599  0.2500136880661578
  0.8749266393987895  0.7499885633060999  0.3750964925274456
  0.7499637547475690  0.8749640655877536  0.3750852709516450
  0.8127204115013912  0.8126664228273316  0.5623267331130301
  0.9376466150863330  0.9375929301317770  0.5624602053822652
  0.9373798280296107  0.8123449103505905  0.6874227585091782
  0.8123923677568673  0.9373304975963317  0.6874241846252461
  0.7501078514045592  0.7501511746825124  0.5003695960972288
  0.8751831604299334  0.8752056591380619  0.5000785779557380
  0.8747987958427149  0.7499132111665496  0.6250042067596522
  0.7498933863978633  0.8748225205687126  0.6250008072594730
  0.8123061171580271  0.8122602380911382  0.8122856361932198
  0.9373926522657136  0.9373402869360428  0.8124154731103542
  0.9373909379577711  0.8123860387838975  0.9373692519247543
  0.8124393657050217  0.9373445644969230  0.9373751472288391
  0.7497657959372066  0.7497865744166943  0.7498117491884674
  0.8748594649384840  0.8748734701871577  0.7499659178024529
  0.8748579961550487  0.7499399692600405  0.8748986151443106
  0.7499303281647309  0.8748764737928143  0.8749029076255825
  0.3126226454855839  0.3125742764989748  0.3126040118621855
  0.4376785460883698  0.4376232009797682  0.3125089592407358
  0.4376785258471743  0.3124786359523256  0.4376589264030379
  0.3125261372237014  0.4376292533222472  0.4376617192837384
  0.2500794166111753  0.2500962168632911  0.2501227833586545
  0.3751178095806619  0.3751276996856697  0.2501108660614134
  0.3751168538199920  0.2500840546315313  0.3751596131916841
  0.2500712017242022  0.3751303188966654  0.3751612791560386
  0.3119933006553017  0.3119414237240414  0.5625171870749608
  0.4335979945185564  0.4335790392918717  0.5676035180430663
  0.4376078964463386  0.3113598892814127  0.6886130334547842
  0.3114049054636795  0.4375441472709132  0.6886365057367556
  0.2496200981987526  0.2496339761104722  0.5001739456264518
  0.3742703479195716  0.3742829479102724  0.5001890510841265
  0.3749604699542491  0.2498880164522063  0.6252041911639623
  0.2498755723260729  0.3749703465047428  0.6252085044343988
  0.3119880451968205  0.5624834600104699  0.3119668575768323
  0.4376093424817367  0.6885774134997815  0.3113945289844524
  0.4336009087491743  0.5675478150993554  0.4335984085766744
  0.3114220702903555  0.6885817145991446  0.4375879796197855
  0.2496187081127484  0.5001427095668771  0.2496601785206367
  0.3749623745777658  0.6251710784491151  0.2499203700291057
  0.3742576253486632  0.5001526962123859  0.3742988525279481
  0.2498802055449004  0.6251709939303366  0.3750077521960521
  0.3126573002875861  0.5624544498058980  0.5625002919930818
  0.4384630222042144  0.6866287671927472  0.5631330733340006
  0.4384644642082159  0.5630999614771268  0.6866561389602440
  0.3128039556170457  0.6874061491212826  0.6874329233573915
  0.2499473459905152  0.5001274322561348  0.5001642890288446
  0.3736495709060882  0.6269104909757357  0.5001421157431745
  0.3736317630385730  0.5000960275704845  0.6269704648686483
  0.2500892947256615  0.6249917862262293  0.6250231558444990
  0.5625295209674854  0.3119358831614114  0.3119692184069324
  0.6886470430208339  0.4375364606287745  0.3113819497303897
  0.6886407887887863  0.3113509625527300  0.4375764772270924
  0.5676076350680858  0.4335547527711939  0.4335895425571641
  0.5001302774886087  0.2496246392849982  0.2496538439219173
  0.6251605792668634  0.3749621610693087  0.2499165772118129