Si
1.000000
   5.430700000  0.000000000  0.000000000
   0.000000000  5.430700000  0.000000000
   0.000000000  0.000000000  5.430700000
   Si
    8
Direct
0.000000000 0.000000000 0.000000000
0.000000000 0.500000000 0.500000000
0.500000000 0.000000000 0.500000000
0.500000000 0.500000000 0.000000000
0.250000000 0.250000000 0.250000000
0.250000000 0.750000000 0.750000000
0.750000000 0.250000000 0.750000000
0.750000000 0.750000000 0.250000000
