GaN                                     
    1.000000000000000     
    15.8909244537000003    0.0000000000000000    0.0000000000000000
     0.0000000000000000   16.5143318175999987    0.0000000000000000
     0.0000000000000000    0.0000000000000000   15.4982528686999999
   Ga   N    H 
   179   180     1
Direct
  0.1000000084725201  0.0556675743819639  0.3330182648877056
  0.0999999583936741  0.0556173073685855  0.6663706707256267
  0.1000000383920252  0.0555760054998018  0.9997521049913374
  0.1000000018004030  0.3888879377772128  0.3329669734972569
  0.0999999368497981  0.3888571919474444  0.6664262661252351
  0.1000000635041616  0.3888616193560779  0.9998053496604413
  0.0999999776453464  0.7222513323596900  0.3330003857322410
  0.1000000001306631  0.7222798149255922  0.6664362434359816
  0.1000000377903874  0.7222165948005212  0.9997669225029284
  0.3001450162051711  0.0556472710476754  0.3330027604942245
  0.2999662505222247  0.0555099627284719  0.6663985876171310
  0.3000188473554033  0.0555546822978243  0.9997739589587056
  0.3005674000285481  0.3890471830485964  0.3331544484749216
  0.2998124049441415  0.3888700426778442  0.6663092263031771
  0.3000418897443353  0.3888573659053591  0.9996819892782725
  0.2999984017305337  0.7221765306555170  0.3330126293925773
  0.2998742322260668  0.7222713696245151  0.6664738031891630
  0.2999951745853977  0.7222158761017994  0.9997808324239870
  0.5000450069605478  0.0554636190428823  0.3330143762165676
  0.5000100559442302  0.0553542047766626  0.6664523424126401
  0.4999876656575850  0.0554989851546139  0.9997759137235249
  0.5009903911150531  0.3893950314765462  0.3340202389068310
  0.4989691772942706  0.3882739291972399  0.6656354367530284
  0.4999825410368004  0.3888411546819839  0.9994758572257680
  0.5001156994837430  0.7215708272466514  0.3331774477110230
  0.4998712086468515  0.7223251881050317  0.6663223107813252
  0.5000139206459693  0.7221431555965694  0.9996681204094386
  0.6999549745607965  0.0554635921943358  0.3330141957316073
  0.6999900448117415  0.0553542345755105  0.6664522197572396
  0.7000122712853809  0.0554989852613801  0.9997758535320571
  0.6990097163018305  0.3893950319335602  0.3340187409481388
  0.7010310166096687  0.3882738092476004  0.6656361246342044
  0.7000173329076418  0.3888411896069996  0.9994758639546930
  0.6998843486350808  0.7215707995476990  0.3331774636543301
  0.7001287888419085  0.7223252139249183  0.6663226087381275
  0.6999860149509516  0.7221431679141688  0.9996681013658701
  0.8998550087105599  0.0556472064593905  0.3330024530484721
  0.9000336970563936  0.0555100477666812  0.6663984740597826
  0.8999811873893364  0.0555546716279309  0.9997738265970710
  0.8994326657616583  0.3890472194246897  0.3331535692829704
  0.9001874377321499  0.3888700236215783  0.6663091442231419
  0.8999581865008892  0.3888573503780108  0.9996818373427914
  0.9000015795558767  0.7221765182375819  0.3330128226290441
  0.9001257683886621  0.7222713539772485  0.6664741449133231
  0.9000048600168569  0.7222159216990960  0.9997808917067630
  0.9998300750254643  0.2223342997289279  0.3330408877318689
  0.9999649933345225  0.2222411933924775  0.6663094201131941
  0.9999726886802307  0.2222233889685512  0.9997818602281825
  0.9999798656158774  0.5555425489233130  0.3330133669913451
  0.0000846289069329  0.5556131258718153  0.6664936236200916
  0.0000073128817633  0.5555142125714667  0.9997928879627267
  0.9999825279056367  0.8889559760737029  0.3330058203857504
  0.0000331931565682  0.8889338569698992  0.6664091979462086
  0.0000048029026516  0.8889020019292460  0.9997609358441579
  0.2001699739641438  0.2223343232524329  0.3330412500225961
  0.2000348542882122  0.2222411449300239  0.6663096224636931
  0.2000274095393877  0.2222234108172430  0.9997819944048558
  0.2000200951749136  0.5555425272668728  0.3330133325888056
  0.1999153623776451  0.5556131710884031  0.6664934596132568
  0.1999927633629781  0.5555141946783309  0.9997928928817785
  0.2000174643027677  0.8889560053780841  0.3330058059487015
  0.1999667770249260  0.8889338281979775  0.6664091254039590
  0.1999952537134604  0.8889019924021397  0.9997609235881981
  0.4004989949199853  0.2225746254459366  0.3331936862667391
  0.3999296044728240  0.2220032013709954  0.6662937238087778
  0.4000299662033910  0.2222216340978065  0.9996673967851208
  0.4000390780581569  0.5554795079038328  0.3329452917961859
  0.3997009746584226  0.5556768630168634  0.6667791901034477
  0.4000230976008012  0.5555089046021138  0.9994790418473656
  0.4000741400728103  0.8886964787224656  0.3330012883891200
  0.3999541775300983  0.8888708270401651  0.6664207568744658
  0.3999994859729838  0.8888294074019711  0.9997784078784733
  0.5999999349418772  0.2222301984249953  0.3329463361504068
  0.6000002075396367  0.2218551277230532  0.6667386962531694
  0.5999999037433525  0.2222090348528809  0.9994769376381356
  0.6000000525559415  0.5543719601190347  0.3338674979568736
  0.5999999861358347  0.5566507218274737  0.6656329429605776
  0.5999999567676042  0.5555365631685305  0.9994803560776759
  0.6000000078394692  0.8885866427713154  0.3330349055550528
  0.6000000204635256  0.8887227744984330  0.6663496916157072
  0.5999999724236389  0.8888025958701533  0.9997828758580738
  0.7995010489766869  0.2225745612443006  0.3331926796846574
  0.8000703337510586  0.2220033192145863  0.6662933741005475
  0.7999700426214957  0.2222215871323456  0.9996672415992194
  0.7999609403932482  0.5554795978251192  0.3329451909817891
  0.8002990325465547  0.5556766602079222  0.6667795227927726
  0.7999768754256635  0.5555089874159833  0.9994790059159655
  0.7999258677041325  0.8886964127554080  0.3330012531388462
  0.8000458367942400  0.8888708823850777  0.6664208816099801
  0.8000004946947712  0.8888294335731288  0.9997784063047845
  0.1000000604955744  0.2778202055773917  0.1664366841662570
  0.0999999442712465  0.2778389953266682  0.4996939820611246
  0.0999999897761441  0.2777984634475388  0.8330666227423791
  0.1000000251819486  0.6111404960118705  0.1663929324533271
  0.0999999541290748  0.6113448883986550  0.4997325330496025
  0.1000000384616158  0.6111631133746371  0.8331374975173702
  0.1000000171662450  0.9445340674566083  0.1663880597561658
  0.0999999712338919  0.9446718764652644  0.4997053465722985
  0.1000000183239393  0.9445293990341099  0.8330870710543223
  0.3001212265220516  0.2778679270738209  0.1665007163764685
  0.3004805903701069  0.2780274017941764  0.4996105907660890
  0.2999879589077565  0.2777914033629756  0.8330187111791361
  0.3000618648977280  0.6111046273576335  0.1663395847339899
  0.2996874455216627  0.6113376681157590  0.4997929963638512
  0.2999004394433200  0.6112049191806079  0.8331869078538148
  0.3000466909379682  0.9444876925362493  0.1664062873475771
  0.3000315880125157  0.9444564169276148  0.4997117345556177
  0.2999991638432320  0.9444918531190751  0.8331019323689546
  0.5001170844072576  0.2778986908035534  0.1662914783977456
  0.5013724961296049  0.2781962135518796  0.5000936352847916
  0.4999846538744066  0.2778610364012408  0.8328183134804661
  0.5000294348286474  0.6109767454049404  0.1662686160195577
  0.4995847160824241  0.6097760864742483  0.5001489175006526
  0.5000702836796265  0.6111094506785832  0.8328326049979395
  0.5000212649818323  0.9444265902508704  0.1664128548412904
  0.5000409115097924  0.9441310247728225  0.4997134506118925
  0.4999951354424041  0.9444189715941604  0.8330947563682685
  0.6998827802799639  0.2778985851011697  0.1662909577271989
  0.6986275935106221  0.2781963815522701  0.5000924038820429
  0.7000153768958626  0.2778609361283273  0.8328185053805015
  0.6999705059343384  0.6109767675919429  0.1662685445787488
  0.7004153789188692  0.6097760860625954  0.5001493752937733
  0.6999296398531740  0.6111094218297239  0.8328326300685518
  0.6999787066527716  0.9444265680524282  0.1664128040365327
  0.6999591492849930  0.9441310291899185  0.4997133928730904
  0.7000048395841461  0.9444189921117569  0.8330947625278426
  0.8998788632459593  0.2778678982432226  0.1665002174889736
  0.8995193276828033  0.2780274743632702  0.4996098270724119
  0.9000120282415978  0.2777913666128171  0.8330186186716446
  0.8999381765795249  0.6111046852698792  0.1663395574349806
  0.9003125072725240  0.6113376321751076  0.4997934158710322
  0.9000996040829250  0.6112049098153847  0.8331871269479194
  0.8999533297911810  0.9444876516297995  0.1664061886573833
  0.8999683813893213  0.9444564392921606  0.4997117001746503
  0.9000008521821243  0.9444918830571183  0.8331019466520999
  0.9999628104193619  0.1111897696487887  0.1664169118522381
  0.9998942798525405  0.1112698101355747  0.4996826515373911
  0.9999946266535673  0.1111690689755562  0.8330682800479892
  0.9999126202530348  0.4444581299237029  0.1664589602109672
  0.0000090477433616  0.4447884934972706  0.4998269712199885
  0.9999911514029520  0.4444666811972269  0.8330949180481682
  0.9999837906901661  0.7778332804206514  0.1663857367014998
  0.0000865772749137  0.7779908412154484  0.4997137601914332
  0.0000165421213367  0.7778638520174610  0.8331170476956160
  0.2000372489437723  0.1111898028064573  0.1664170809708807
  0.2001056543589002  0.1112697861552121  0.4996828697714548
  0.2000053799640114  0.1111690510192531  0.8330683622669426
  0.2000875265025144  0.4444580787414623  0.1664591966124860
  0.1999907702185268  0.4447885191063818  0.4998270539012069
  0.2000088774016078  0.4444667093439634  0.8330949103430427
  0.2000162281569828  0.7778332795066873  0.1663857024805679
  0.1999133624216896  0.7779908479756870  0.4997135783954647
  0.1999835202239808  0.7778638401992595  0.8331169563749228
  0.4000675142831938  0.1112365875467347  0.1664549811911513
  0.4002712986903205  0.1109516209194794  0.4997960664944827
  0.4000095259124805  0.1111406327522815  0.8330650543145239
  0.4001473026198923  0.4445128136686378  0.1662827817691692
  0.4011025735977967  0.4454055015525853  0.5001344492142366
  0.4000529360112708  0.4444184076386222  0.8328327262758748
  0.4000761848681407  0.7777032328638711  0.1664472936579742
  0.3997602720789573  0.7776289301147514  0.4998023828869833
  0.3999929155789417  0.7777861935226937  0.8330810067891363
  0.5999999560033586  0.1111881144027578  0.1663455502025499
  0.6000000455965093  0.1107045605474184  0.4997804145120526
  0.6000000074777816  0.1110097817200000  0.8331642751735941
  0.5999998427235909  0.4444494237881784  0.1657996281209080
  0.5999999162321714  0.4444644693303204  0.8328521752620972
  0.5999999895919572  0.7776490281414112  0.1664886393969027
  0.6000000524872604  0.7771516674808012  0.4996281709334625
  0.5999999505557696  0.7777941437818967  0.8330341521485352
  0.7999324823086695  0.1112364792187890  0.1664546541506411
  0.7997287209933361  0.1109517292558948  0.4997955550404924
  0.7999904686678505  0.1111406514044049  0.8330649309282308
  0.7998527390008192  0.4445129256637870  0.1662822102614925
  0.7988973355905742  0.4454054621028973  0.5001336526405638
  0.7999471230265556  0.4444183818392631  0.8328329386771927
  0.7999238138773777  0.7777032237802288  0.1664472488958921
  0.8002397322081976  0.7776289079091256  0.4998027493065749
  0.8000070792410412  0.7777862198895278  0.8330811578125932
  0.1000000489759287  0.0556522361776572  0.1254092766137944
  0.0999999954010207  0.0558064506990661  0.4587030143150344
  0.1000000024625152  0.0556226263726458  0.7920336515220896
  0.1000000751669958  0.3889448044256412  0.1254775229881702
  0.0999999448751865  0.3889444720271626  0.4586877207556697
  0.1000000023443732  0.3889148621597016  0.7920533690212821
  0.1000000094443152  0.7222704168019547  0.1254079110149107
  0.0999999574749637  0.7224050610402202  0.4586752853958203
  0.1000000087471165  0.7222733428463997  0.7920842044348504
  0.3000484770443634  0.0556149701229387  0.1254394171558886
  0.3001178748133029  0.0556368528517694  0.4586953473169402
  0.2999960091944445  0.0555871989436270  0.7920441257295607
  0.3000471560931359  0.3889228193271919  0.1253255913256055
  0.3000157195750575  0.3892142071266562  0.4588844239600505
  0.2999772024774998  0.3888894397904323  0.7919712934537202
  0.3000042685743765  0.7222612706385192  0.1254077666429794
  0.2997621626960907  0.7223702164937293  0.4586976752568006
  0.2999568019964016  0.7222779837263786  0.7920979884605472
  0.4999906212736178  0.0555389627580070  0.1254131851348603
  0.5000314919043376  0.0551876936928934  0.4587105621463579
  0.4999872241887360  0.0555210437329379  0.7920818332754820
  0.4999853861487509  0.3888967822788416  0.1249625726358019
  0.4945170299452499  0.3858743116463259  0.4566147384770005
  0.5001349237403190  0.3889813665270836  0.7912668702267283
  0.5000191249606942  0.7221688431766253  0.1253052823167380
  0.4997326263256596  0.7219801213683255  0.4588916462580741
  0.4999979926410489  0.7222586948587946  0.7919818286781677
  0.7000092854665141  0.0555389477356130  0.1254131039016713
  0.6999685128808153  0.0551876712979222  0.4587103890683935
  0.7000127873579345  0.0555210444775582  0.7920817527204349
  0.7000144633174799  0.3888968467699598  0.1249625644693637
  0.7054830896232147  0.3858743606581072  0.4566134851974510
  0.6998651076784768  0.3889813281682208  0.7912672530428821
  0.6999808471743165  0.7221688690457100  0.1253052591414203
  0.7002674454464142  0.7219800608305391  0.4588917413865161
  0.7000019972103289  0.7222587057327416  0.7919820297509901
  0.8999515790078334  0.0556149284626173  0.1254392687037296
  0.8998821263132086  0.0556368188721947  0.4586950862702395
  0.9000039861825258  0.0555872161398412  0.7920440424768600
  0.8999529487532314  0.3889228469758095  0.1253253893706301
  0.8999842507531923  0.3892142593157999  0.4588837465793247
  0.9000227688506968  0.3888894364514712  0.7919712662466054
  0.8999957588909737  0.7222613139775476  0.1254077869047094
  0.9002377990001875  0.7223701645441807  0.4586979001863583
  0.9000432073086060  0.7222779755952899  0.7920982442370459
  0.9999427942117762  0.2223086579692364  0.1254535332135731
  0.9998085397695817  0.2224373806206614  0.4587515865873328
  0.0000069488331675  0.2222565480638679  0.7919825568968548
  0.0000044085264435  0.5555641811182284  0.1254196312584668
  0.0001754595588608  0.5557176049620551  0.4587007028096224
  0.0000257862080844  0.5555837635303007  0.7921076946859245
  0.9999962492165508  0.8889645853361046  0.1254094167768542
  0.0000321649941455  0.8890955101720266  0.4586827931519721
  0.0000119124367473  0.8889607753703643  0.7920598260664846
  0.2000573493655082  0.2223086837330897  0.1254536830422737
  0.2001914641932885  0.2224373891424705  0.4587519014153330
  0.1999930281040463  0.2222565303346968  0.7919826862547126
  0.1999956240455347  0.5555641193575056  0.1254196718525478
  0.1998244432137852  0.5557175921278130  0.4587006512957643
  0.1999742300153855  0.5555837684819593  0.7921075703211642
  0.2000037970746078  0.8889645954686429  0.1254094216944708
  0.1999678003029288  0.8890955412653696  0.4586827627398549
  0.1999880943336620  0.8889607706276692  0.7920597652221204
  0.4000410854208241  0.2222851286842555  0.1253097117718553
  0.4003345823163187  0.2220807011078207  0.4589070517344851
  0.3999720066837185  0.2222318630612889  0.7919636367805083
  0.3999763695177947  0.5555830382949551  0.1250432569757081
  0.3992912476335206  0.5559316214022303  0.4586547041761762
  0.3998949901853166  0.5556340277445315  0.7922565107603958
  0.4000071889975985  0.8888476466145363  0.1254354533106508
  0.3999886404990605  0.8887473571443607  0.4586879503975183
  0.3999720358183012  0.8888959405019818  0.7920585542050631
  0.5999998616127087  0.2222062843271573  0.1250470842338771
  0.5999999235705502  0.2214299126893522  0.4586568005296172
  0.6000000555901508  0.2221175981845178  0.7922317602992592
  0.5999999680646724  0.5555724477024384  0.1249687936121902
  0.6000001093522940  0.5619146245854836  0.4564705875398616
  0.5999999747241276  0.5554214566895581  0.7912608651561044
  0.5999999765994559  0.8887998071550953  0.1254424423680973
  0.6000000193301247  0.8884572210095243  0.4587410287885945
  0.5999999994375287  0.8888842446352356  0.7920135498354668
  0.7999589229239277  0.2222850758980641  0.1253095038349201
  0.7996654442866529  0.2220806931135115  0.4589062102339838
  0.8000279660932890  0.2222318932530172  0.7919634318256499
  0.8000236370048128  0.5555831991205480  0.1250431565462407
  0.8007087578370715  0.5559317255300940  0.4586546472486717
  0.8001050240495360  0.5556339718645660  0.7922567640989655
  0.7999927977186516  0.8888476513650900  0.1254354324773459
  0.8000113767105645  0.8887472749862937  0.4586879664604595
  0.8000279677520155  0.8888959506427128  0.7920586538310204
  0.1000000519922892  0.2777467806328886  0.2921135022167007
  0.0999999781733010  0.2777910067852432  0.6253356720793164
  0.1000000423357150  0.2777514087076867  0.9587395937878966
  0.0999999898676833  0.6111197014718357  0.2920468387171269
  0.0999999603941362  0.6111987148428284  0.6253952675595684
  0.1000000371006564  0.6111052221281099  0.9587689435390843
  0.0999999905986826  0.9445341033801569  0.2920484289951517
  0.0999999812331538  0.9445192324049430  0.6253623737579375
  0.1000000253047304  0.9444688442198910  0.9587373657509914
  0.3002134648108878  0.2778604073624038  0.2921854798654095
  0.3000686631692915  0.2777902251018673  0.6253069918532859
  0.3000015213548366  0.2777503686368661  0.9586621889410125
  0.2999539504853601  0.6111121293582471  0.2919865342690500
  0.2998438792090354  0.6111950896964373  0.6254647304113661
  0.2999430027155796  0.6111238952529519  0.9587525176279428
  0.3001039182186034  0.9444562310852049  0.2920832957572941
  0.2999863052809744  0.9444290128586275  0.6253484893368224
  0.3000112347250052  0.9444376637604037  0.9587524346529932
  0.5003031401575839  0.2779277826867954  0.2917036968346167
  0.5001466112386268  0.2773288418962068  0.6255930489125490
  0.4999786627614213  0.2777860666109433  0.9584255921844544
  0.5000027816709860  0.6107274221885106  0.2916978760036031
  0.4995482190897675  0.6111472383961214  0.6256108872256476
  0.5000477495238584  0.6110758276535577  0.9584331446865519
  0.5000436600085010  0.9443139807181495  0.2920723841599724
  0.4999988872407073  0.9442763265002299  0.6253679174692905
  0.5000030393931922  0.9443822343035038  0.9587469005397509
  0.6996967425755116  0.2779276081789703  0.2917031635277354
  0.6998534414061623  0.2773290263642352  0.6255923725607673
  0.7000212782998076  0.2777860397925878  0.9584257250947275
  0.6999972250688984  0.6107274343600793  0.2916977909124014
  0.7004518651125622  0.6111472553230612  0.6256112210271425
  0.6999521816083529  0.6110758238019969  0.9584331638046351
  0.6999563550736596  0.9443139373621108  0.2920723303268176
  0.7000011496740868  0.9442763292988090  0.6253678886959619
  0.6999969224146554  0.9443822269883810  0.9587468964909505
  0.8997866329919972  0.2778603876698398  0.2921849528513292
  0.8999312930916687  0.2777902860016042  0.6253065007937693
  0.8999985063170186  0.2777503300057944  0.9586620994862685
  0.9000460763846831  0.6111121774299662  0.2919865172123366
  0.9001560618735951  0.6111950692464276  0.6254650631379377
  0.9000570347411596  0.6111239158297934  0.9587526413734437
  0.8998960856818670  0.9444561470163322  0.2920831991842761
  0.9000136802520373  0.9444290456179800  0.6253484903946784
  0.8999887873831369  0.9444376366648655  0.9587524350557430
  0.9999335734130597  0.1111670682423025  0.2920872041393565
  0.9999730514055543  0.1111297043503541  0.6253370874830892
  0.9999887237141962  0.1111129686408177  0.9587330526658491
  0.9998548883987297  0.4443755590547767  0.2921525469541777
  0.0001132999040294  0.4445340028124249  0.6254015910866713
  0.0000002904019283  0.4444146938768441  0.9587290918945612
  0.9999904954768866  0.7778393850604886  0.2920399791657928
  0.0000538248427446  0.7778598907345469  0.6253771224942994
  0.0000067343408219  0.7777956400508899  0.9587561174077166
  0.2000664604647682  0.1111671138909927  0.2920873830062831
  0.2000269255277871  0.1111296816806870  0.6253372411865712
  0.2000113304041022  0.1111129937528474  0.9587331266025600
  0.2001452552870120  0.4443754748470923  0.2921527831125985
  0.1998865845234548  0.4445340052285900  0.6254016277049885
  0.1999997908866078  0.4444146967488223  0.9587290943107831
  0.2000094613765881  0.7778394064174137  0.2920399399910139
  0.1999461199891712  0.7778598918546038  0.6253769642521334
  0.1999933212464811  0.7777956366297616  0.9587560540947777
  0.4001296217160117  0.1112705924936392  0.2921286180526934
  0.4000321944695031  0.1109097095198592  0.6254035362758330
  0.4000139837594716  0.1110879443193795  0.9587045589490941
  0.4002813144461399  0.4445632735396288  0.2917023770982681
  0.3996916096137113  0.4447474382837129  0.6256107988502322
  0.4000200871912156  0.4443756278000137  0.9584368781460029
  0.4001462482746803  0.7775649901925945  0.2921198305208819
  0.3998512501149563  0.7777948327323614  0.6254087747807446
  0.3999992445272440  0.7777362393721603  0.9587112266162450
  0.5999999786077552  0.1110126457530924  0.2919929948516540
  0.6000000210310361  0.1108673539950189  0.6254515111813319
  0.5999999714821129  0.1110099906352389  0.9587394060141676
  0.5999998409631075  0.4443856593854960  0.2911670389185019
  0.6000001716045205  0.4444099098366436  0.6267769319965808
  0.5999999459793557  0.4444141294070363  0.9583342579858467
  0.6000000249243698  0.7774680978580406  0.2921668860991957
  0.6000000389500784  0.7776084458647432  0.6253251674237106
  0.5999999625674306  0.7777315994360947  0.9586683684929511
  0.7998703840019985  0.1112704359947614  0.2921282590977086
  0.7999678114740618  0.1109097902126166  0.6254031901095800
  0.7999859996095466  0.1110879062303525  0.9587044552146438
  0.7997188103484021  0.4445634560487406  0.2917017857176631
  0.8003082771252323  0.4447474002985956  0.6256104410477761
  0.7999798949821937  0.4443756254706344  0.9584370329411342
  0.7998537766753913  0.7775649397944662  0.2921198174913471
  0.8001487632495596  0.7777948346108090  0.6254090714448708
  0.8000007452412206  0.7777362422610707  0.9587113309106527
  0.6000003838927697  0.4443015315110870  0.5601799290304470
 
  0.00000000E+00  0.00000000E+00  0.00000000E+00
  0.00000000E+00  0.00000000E+00  0.00000000E+00
  0.00000000E+00  0.00000000E+00  0.00000000E+00
  0.00000000E+00  0.00000000E+00  0.00000000E+00
  0.00000000E+00  0.00000000E+00  0.00000000E+00
  0.00000000E+00  0.00000000E+00  0.00000000E+00
  0.00000000E+00  0.00000000E+00  0.00000000E+00
  0.00000000E+00  0.00000000E+00  0.00000000E+00
  0.00000000E+00  0.00000000E+00  0.00000000E+00
  0.00000000E+00  0.00000000E+00  0.00000000E+00
  0.00000000E+00  0.00000000E+00  0.00000000E+00
  0.00000000E+00  0.00000000E+00  0.00000000E+00
  0.00000000E+00  0.00000000E+00  0.00000000E+00
  0.00000000E+00  0.00000000E+00  0.00000000E+00
  0.00000000E+00  0.00000000E+00  0.00000000E+00
  0.00000000E+00  0.00000000E+00  0.00000000E+00
  0.00000000E+00  0.00000000E+00  0.00000000E+00
  0.00000000E+00  0.00000000E+00  0.00000000E+00
  0.00000000E+00  0.00000000E+00  0.00000000E+00
  0.00000000E+00  0.00000000E+00  0.00000000E+00
  0.00000000E+00  0.00000000E+00  0.00000000E+00
  0.00000000E+00  0.00000000E+00  0.00000000E+00
  0.00000000E+00  0.00000000E+00  0.00000000E+00
  0.00000000E+00  0.00000000E+00  0.00000000E+00
  0.00000000E+00  0.00000000E+00  0.00000000E+00
  0.00000000E+00  0.00000000E+00  0.00000000E+00
  0.00000000E+00  0.00000000E+00  0.00000000E+00
  0.00000000E+00  0.00000000E+00  0.00000000E+00
  0.00000000E+00  0.00000000E+00  0.00000000E+00
  0.00000000E+00  0.00000000E+00  0.00000000E+00
  0.00000000E+00  0.00000000E+00  0.00000000E+00
  0.00000000E+00  0.00000000E+00  0.00000000E+00
  0.00000000E+00  0.00000000E+00  0.00000000E+00
  0.00000000E+00  0.00000000E+00  0.00000000E+00
  0.00000000E+00  0.00000000E+00  0.00000000E+00
  0.00000000E+00  0.00000000E+00  0.00000000E+00
  0.00000000E+00  0.00000000E+00  0.00000000E+00
  0.00000000E+00  0.00000000E+00  0.00000000E+00
  0.00000000E+00  0.00000000E+00  0.00000000E+00
  0.00000000E+00  0.00000000E+00  0.00000000E+00
  0.00000000E+00  0.00000000E+00  0.00000000E+00
  0.00000000E+00  0.00000000E+00  0.00000000E+00
  0.00000000E+00  0.00000000E+00  0.00000000E+00
  0.00000000E+00  0.00000000E+00  0.00000000E+00
  0.00000000E+00  0.00000000E+00  0.00000000E+00
  0.00000000E+00  0.00000000E+00  0.00000000E+00
  0.00000000E+00  0.00000000E+00  0.00000000E+00
  0.00000000E+00  0.00000000E+00  0.00000000E+00
  0.00000000E+00  0.00000000E+00  0.00000000E+00
  0.00000000E+00  0.00000000E+00  0.00000000E+00
  0.00000000E+00  0.00000000E+00  0.00000000E+00
  0.00000000E+00  0.00000000E+00  0.00000000E+00
  0.00000000E+00  0.00000000E+00  0.00000000E+00
  0.00000000E+00  0.00000000E+00  0.00000000E+00
  0.00000000E+00  0.00000000E+00  0.00000000E+00
  0.00000000E+00  0.00000000E+00  0.00000000E+00
  0.00000000E+00  0.00000000E+00  0.00000000E+00
  0.00000000E+00  0.00000000E+00  0.00000000E+00
  0.00000000E+00  0.00000000E+00  0.00000000E+00
  0.00000000E+00  0.00000000E+00  0.00000000E+00
  0.00000000E+00  0.00000000E+00  0.00000000E+00
  0.00000000E+00  0.00000000E+00  0.00000000E+00
  0.00000000E+00  0.00000000E+00  0.00000000E+00
  0.00000000E+00  0.00000000E+00  0.00000000E+00
  0.00000000E+00  0.00000000E+00  0.00000000E+00
  0.00000000E+00  0.00000000E+00  0.00000000E+00
  0.00000000E+00  0.00000000E+00  0.00000000E+00
  0.00000000E+00  0.00000000E+00  0.00000000E+00
  0.00000000E+00  0.00000000E+00  0.00000000E+00
  0.00000000E+00  0.00000000E+00  0.00000000E+00
  0.00000000E+00  0.00000000E+00  0.00000000E+00
  0.00000000E+00  0.00000000E+00  0.00000000E+00
  0.00000000E+00  0.00000000E+00  0.00000000E+00
  0.00000000E+00  0.00000000E+00  0.00000000E+00
  0.00000000E+00  0.00000000E+00  0.00000000E+00
  0.00000000E+00  0.00000000E+00  0.00000000E+00
  0.00000000E+00  0.00000000E+00  0.00000000E+00
  0.00000000E+00  0.00000000E+00  0.00000000E+00
  0.00000000E+00  0.00000000E+00  0.00000000E+00
  0.00000000E+00  0.00000000E+00  0.00000000E+00
  0.00000000E+00  0.00000000E+00  0.00000000E+00
  0.00000000E+00  0.00000000E+00  0.00000000E+00
  0.00000000E+00  0.00000000E+00  0.00000000E+00
  0.00000000E+00  0.00000000E+00  0.00000000E+00
  0.00000000E+00  0.00000000E+00  0.00000000E+00
  0.00000000E+00  0.00000000E+00  0.00000000E+00
  0.00000000E+00  0.00000000E+00  0.00000000E+00
  0.00000000E+00  0.00000000E+00  0.00000000E+00
  0.00000000E+00  0.00000000E+00  0.00000000E+00
  0.00000000E+00  0.00000000E+00  0.00000000E+00
  0.00000000E+00  0.00000000E+00  0.00000000E+00
  0.00000000E+00  0.00000000E+00  0.00000000E+00
  0.00000000E+00  0.00000000E+00  0.00000000E+00
  0.00000000E+00  0.00000000E+00  0.00000000E+00
  0.00000000E+00  0.00000000E+00  0.00000000E+00
  0.00000000E+00  0.00000000E+00  0.00000000E+00
  0.00000000E+00  0.00000000E+00  0.00000000E+00
  0.00000000E+00  0.00000000E+00  0.00000000E+00
  0.00000000E+00  0.00000000E+00  0.00000000E+00
  0.00000000E+00  0.00000000E+00  0.00000000E+00
  0.00000000E+00  0.00000000E+00  0.00000000E+00
  0.00000000E+00  0.00000000E+00  0.00000000E+00
  0.00000000E+00  0.00000000E+00  0.00000000E+00
  0.00000000E+00  0.00000000E+00  0.00000000E+00
  0.00000000E+00  0.00000000E+00  0.00000000E+00
  0.00000000E+00  0.00000000E+00  0.00000000E+00
  0.00000000E+00  0.00000000E+00  0.00000000E+00
  0.00000000E+00  0.00000000E+00  0.00000000E+00
  0.00000000E+00  0.00000000E+00  0.00000000E+00
  0.00000000E+00  0.00000000E+00  0.00000000E+00
  0.00000000E+00  0.00000000E+00  0.00000000E+00
  0.00000000E+00  0.00000000E+00  0.00000000E+00
  0.00000000E+00  0.00000000E+00  0.00000000E+00
  0.00000000E+00  0.00000000E+00  0.00000000E+00
  0.00000000E+00  0.00000000E+00  0.00000000E+00
  0.00000000E+00  0.00000000E+00  0.00000000E+00
  0.00000000E+00  0.00000000E+00  0.00000000E+00
  0.00000000E+00  0.00000000E+00  0.00000000E+00
  0.00000000E+00  0.00000000E+00  0.00000000E+00
  0.00000000E+00  0.00000000E+00  0.00000000E+00
  0.00000000E+00  0.00000000E+00  0.00000000E+00
  0.00000000E+00  0.00000000E+00  0.00000000E+00
  0.00000000E+00  0.00000000E+00  0.00000000E+00
  0.00000000E+00  0.00000000E+00  0.00000000E+00
  0.00000000E+00  0.00000000E+00  0.00000000E+00
  0.00000000E+00  0.00000000E+00  0.00000000E+00
  0.00000000E+00  0.00000000E+00  0.00000000E+00
  0.00000000E+00  0.00000000E+00  0.00000000E+00
  0.00000000E+00  0.00000000E+00  0.00000000E+00
  0.00000000E+00  0.00000000E+00  0.00000000E+00
  0.00000000E+00  0.00000000E+00  0.00000000E+00
  0.00000000E+00  0.00000000E+00  0.00000000E+00
  0.00000000E+00  0.00000000E+00  0.00000000E+00
  0.00000000E+00  0.00000000E+00  0.00000000E+00
  0.00000000E+00  0.00000000E+00  0.00000000E+00
  0.00000000E+00  0.00000000E+00  0.00000000E+00
  0.00000000E+00  0.00000000E+00  0.00000000E+00
  0.00000000E+00  0.00000000E+00  0.00000000E+00
  0.00000000E+00  0.00000000E+00  0.00000000E+00
  0.00000000E+00  0.00000000E+00  0.00000000E+00
  0.00000000E+00  0.00000000E+00  0.00000000E+00
  0.00000000E+00  0.00000000E+00  0.00000000E+00
  0.00000000E+00  0.00000000E+00  0.00000000E+00
  0.00000000E+00  0.00000000E+00  0.00000000E+00
  0.00000000E+00  0.00000000E+00  0.00000000E+00
  0.00000000E+00  0.00000000E+00  0.00000000E+00
  0.00000000E+00  0.00000000E+00  0.00000000E+00
  0.00000000E+00  0.00000000E+00  0.00000000E+00
  0.00000000E+00  0.00000000E+00  0.00000000E+00
  0.00000000E+00  0.00000000E+00  0.00000000E+00
  0.00000000E+00  0.00000000E+00  0.00000000E+00
  0.00000000E+00  0.00000000E+00  0.00000000E+00
  0.00000000E+00  0.00000000E+00  0.00000000E+00
  0.00000000E+00  0.00000000E+00  0.00000000E+00
  0.00000000E+00  0.00000000E+00  0.00000000E+00
  0.00000000E+00  0.00000000E+00  0.00000000E+00
  0.00000000E+00  0.00000000E+00  0.00000000E+00