GaN_ONH                                 
1.0
       15.8909244537         0.0000000000         0.0000000000
        0.0000000000        16.5143318176         0.0000000000
        0.0000000000         0.0000000000        15.4982528687
   Ga    N    O    H
  180  179    1    1
Direct
     0.099779785         0.055760704         0.333312929
     0.099529326         0.054990761         0.666989803
     0.099842481         0.055416401         0.000173027
     0.100179113         0.388977796         0.333635211
     0.099872239         0.388564825         0.666795254
     0.099821679         0.388762623         0.000373722
     0.100085802         0.722521961         0.332848758
     0.099893667         0.721753001         0.666324377
     0.100050211         0.722126961         0.999372721
     0.299917996         0.055482276         0.333479613
     0.299827486         0.054852258         0.666896045
     0.299958915         0.055286471         0.000244812
     0.300330907         0.389200181         0.334768593
     0.297998250         0.385101855         0.670713127
     0.300058991         0.388700187         0.000199158
     0.299766749         0.722895145         0.333500177
     0.300327539         0.721586823         0.665270925
     0.300030112         0.722515643         0.998357177
     0.500082016         0.055482276         0.333479613
     0.500172436         0.054852258         0.666896045
     0.500041068         0.055286471         0.000244812
     0.499669135         0.389200181         0.334768593
     0.502001762         0.385101855         0.670713127
     0.499941051         0.388700187         0.000199158
     0.500233293         0.722895145         0.333500177
     0.499672472         0.721586823         0.665270925
     0.499969900         0.722515643         0.998357177
     0.700220227         0.055760704         0.333312929
     0.700470626         0.054990761         0.666989803
     0.700157523         0.055416401         0.000173027
     0.699820876         0.388977796         0.333635211
     0.700127721         0.388564825         0.666795254
     0.700178325         0.388762623         0.000373722
     0.699914157         0.722521961         0.332848758
     0.700106323         0.721753001         0.666324377
     0.699949801         0.722126961         0.999372721
     0.899999976         0.055693768         0.333402961
     0.899999976         0.055305030         0.666791201
     0.899999976         0.055453356         0.000099607
     0.899999976         0.389040619         0.333381176
     0.899999976         0.388845921         0.666713059
     0.899999976         0.388942659         0.000101291
     0.899999976         0.722237527         0.332906872
     0.899999976         0.721806705         0.666432142
     0.899999976         0.722072959         0.999740362
     0.999935865         0.222418457         0.333566785
     0.999836743         0.222078666         0.666944921
     0.999926567         0.222186565         0.000254342
     0.999969840         0.555615962         0.333113134
     0.000257756         0.555305183         0.666189194
     0.000005326         0.555539727         0.999702692
     0.999922156         0.888956308         0.333122492
     0.999834716         0.888408959         0.666611135
     0.999931395         0.888748288         0.999875665
     0.200018659         0.222234204         0.333527774
     0.199197903         0.220671162         0.667437196
     0.199765116         0.221902147         0.000781477
     0.199982241         0.555639148         0.331693560
     0.200879365         0.554864466         0.665669203
     0.199667081         0.555421174         0.999041200
     0.199621171         0.889279485         0.333057404
     0.199796870         0.888736486         0.666789949
     0.199916169         0.888758063         0.999581754
     0.400000006         0.222041562         0.333989143
     0.400000006         0.220935583         0.667664945
     0.400000006         0.221650288         0.001115224
     0.400000006         0.560646117         0.321628481
     0.400000006         0.551137865         0.664010882
     0.400000006         0.555272639         0.999288261
     0.400000006         0.889043033         0.332899928
     0.400000006         0.888480842         0.666036725
     0.400000006         0.888702989         0.999639153
     0.599981368         0.222234204         0.333527774
     0.600802124         0.220671162         0.667437196
     0.600234866         0.221902147         0.000781477
     0.600017786         0.555639148         0.331693560
     0.599120677         0.554864466         0.665669203
     0.600332975         0.555421174         0.999041200
     0.600378931         0.889279485         0.333057404
     0.600203097         0.888736486         0.666789949
     0.600083888         0.888758063         0.999581754
     0.800064147         0.222418457         0.333566785
     0.800163269         0.222078666         0.666944921
     0.800073445         0.222186565         0.000254342
     0.800030172         0.555615962         0.333113134
     0.799742222         0.555305183         0.666189194
     0.799994707         0.555539727         0.999702692
     0.800077856         0.888956308         0.333122492
     0.800165296         0.888408959         0.666611135
     0.800068617         0.888748288         0.999875665
     0.099900715         0.277839690         0.167100772
     0.099992111         0.277944148         0.500289559
     0.099882156         0.277571112         0.833765924
     0.099767022         0.611289918         0.166210920
     0.100881346         0.611175716         0.499225676
     0.100173622         0.610876381         0.832578063
     0.099856444         0.944609582         0.166478842
     0.098857567         0.945376098         0.500056148
     0.099821076         0.944151163         0.833380461
     0.300031334         0.277836919         0.167318150
     0.298993081         0.274903476         0.500982106
     0.299684644         0.276404887         0.835099459
     0.298512250         0.612317622         0.163102791
     0.298313409         0.617099643         0.497516602
     0.300484747         0.610489845         0.832302213
     0.299922824         0.944449902         0.166467503
     0.299610138         0.944707036         0.499778569
     0.300035655         0.944087148         0.833227515
     0.499968708         0.277836919         0.167318150
     0.501006901         0.274903476         0.500982106
     0.500315428         0.276404887         0.835099459
     0.501487732         0.612317622         0.163102791
     0.501686573         0.617099643         0.497516602
     0.499515265         0.610489845         0.832302213
     0.500077188         0.944449902         0.166467503
     0.500389874         0.944707036         0.499778569
     0.499964386         0.944087148         0.833227515
     0.700099230         0.277839690         0.167100772
     0.700007796         0.277944148         0.500289559
     0.700117826         0.277571112         0.833765924
     0.700232923         0.611289918         0.166210920
     0.699118614         0.611175716         0.499225676
     0.699826360         0.610876381         0.832578063
     0.700143516         0.944609582         0.166478842
     0.701142430         0.945376098         0.500056148
     0.700178862         0.944151163         0.833380461
     0.899999976         0.277965844         0.166846648
     0.899999976         0.278284013         0.500208855
     0.899999976         0.277771354         0.833539546
     0.899999976         0.611161292         0.166432172
     0.899999976         0.610967875         0.499675483
     0.899999976         0.610915005         0.832928479
     0.899999976         0.944513738         0.166612923
     0.899999976         0.944555700         0.499931395
     0.899999976         0.944241345         0.833314478
     0.999916553         0.111266576         0.166800171
     0.999660850         0.111682527         0.500183761
     0.999893486         0.110997014         0.833558679
     0.000019045         0.444578022         0.166732654
     0.000322006         0.444517940         0.499928653
     0.999920785         0.444376528         0.833283126
     0.000020872         0.777847588         0.166321918
     0.999561310         0.777628660         0.499687105
     0.999956012         0.777504861         0.833122015
     0.199968725         0.111077748         0.166914210
     0.199360892         0.110401653         0.500225544
     0.199780926         0.110490464         0.833836198
     0.200058281         0.444472939         0.166620195
     0.201435268         0.444216669         0.500613809
     0.199414194         0.444215000         0.834044158
     0.199870974         0.778171003         0.166128203
     0.197372347         0.780968845         0.500396729
     0.200008765         0.777429760         0.832356513
     0.400000006         0.110969737         0.167123884
     0.400000006         0.110239238         0.500416934
     0.400000006         0.110494286         0.833786249
     0.400000006         0.444853783         0.166916639
     0.400000006         0.432150126         0.509838402
     0.400000006         0.443479419         0.832862675
     0.400000006         0.777868390         0.166127041
     0.400000006         0.779140770         0.498439699
     0.400000006         0.777438104         0.831894636
     0.600031316         0.111077748         0.166914210
     0.600639164         0.110401653         0.500225544
     0.600219071         0.110490464         0.833836198
     0.599941730         0.444472939         0.166620195
     0.598564744         0.444216669         0.500613809
     0.600585818         0.444215000         0.834044158
     0.600129068         0.778171003         0.166128203
     0.602627695         0.780968845         0.500396729
     0.599991262         0.777429760         0.832356513
     0.800083458         0.111266576         0.166800171
     0.800339162         0.111682527         0.500183761
     0.800106525         0.110997014         0.833558679
     0.799980938         0.444578022         0.166732654
     0.799678028         0.444517940         0.499928653
     0.800079226         0.444376528         0.833283126
     0.799979150         0.777847588         0.166321918
     0.800438702         0.777628660         0.499687105
     0.800044000         0.777504861         0.833122015
     0.099893503         0.055762034         0.125750110
     0.099111892         0.056046598         0.458898067
     0.099754259         0.055242512         0.792578340
     0.099985674         0.388871700         0.125987351
     0.100719832         0.389316201         0.459343612
     0.099742092         0.388614029         0.792443693
     0.099997163         0.722287834         0.125042692
     0.099524900         0.722369134         0.458598703
     0.099835433         0.721909523         0.791845798
     0.299986005         0.055644829         0.125828072
     0.299689054         0.055733576         0.459089994
     0.299892902         0.055236809         0.792548954
     0.300269455         0.389036119         0.126204312
     0.299557686         0.385702044         0.460229576
     0.298758984         0.387387931         0.795521617
     0.299867570         0.723359525         0.123723961
     0.296184987         0.728735924         0.459022731
     0.299963564         0.721589327         0.791042507
     0.500014007         0.055644829         0.125828072
     0.500310957         0.055733576         0.459089994
     0.500107169         0.055236809         0.792548954
     0.499730557         0.389036119         0.126204312
     0.500442266         0.385702044         0.460229576
     0.501241088         0.387387931         0.795521617
     0.500132442         0.723359525         0.123723961
     0.503815055         0.728735924         0.459022731
     0.500036418         0.721589327         0.791042507
     0.700106502         0.055762034         0.125750110
     0.700888097         0.056046598         0.458898067
     0.700245738         0.055242512         0.792578340
     0.700014293         0.388871700         0.125987351
     0.699280143         0.389316201         0.459343612
     0.700257897         0.388614029         0.792443693
     0.700002849         0.722287834         0.125042692
     0.700475097         0.722369134         0.458598703
     0.700164557         0.721909523         0.791845798
     0.899999976         0.055640079         0.125718057
     0.899999976         0.055762850         0.459073752
     0.899999976         0.055365670         0.792430937
     0.899999976         0.389050245         0.125760481
     0.899999976         0.389345437         0.459035158
     0.899999976         0.388822734         0.792334735
     0.899999976         0.722224355         0.125392735
     0.899999976         0.721914768         0.458531410
     0.899999976         0.721974611         0.792029321
     0.999955118         0.222377181         0.125876829
     0.999828517         0.222776189         0.459198833
     0.999909639         0.222101957         0.792581081
     0.999896169         0.555583656         0.125376031
     0.000548927         0.555619657         0.458814144
     0.000056205         0.555371523         0.791838109
     0.999930620         0.888950646         0.125458762
     0.999678493         0.888786316         0.458807975
     0.999909401         0.888580024         0.792229652
     0.199957654         0.222319379         0.126356930
     0.199039519         0.221176460         0.459094316
     0.199640661         0.221510798         0.793040514
     0.199152246         0.555241764         0.124367587
     0.202477664         0.555491328         0.457761347
     0.200281337         0.555127919         0.791485965
     0.199815691         0.889215291         0.125182062
     0.198612526         0.891206920         0.458641112
     0.199907199         0.888784230         0.792289555
     0.400000006         0.222155541         0.126604348
     0.400000006         0.221245021         0.459712118
     0.400000006         0.221703067         0.793330312
     0.400000006         0.556071162         0.125330314
     0.400000006         0.554527879         0.790776014
     0.400000006         0.889040709         0.125306442
     0.400000006         0.890411675         0.458474994
     0.400000006         0.888690889         0.791715562
     0.600042343         0.222319379         0.126356930
     0.600960553         0.221176460         0.459094316
     0.600359380         0.221510798         0.793040514
     0.600847721         0.555241764         0.124367587
     0.597522378         0.555491328         0.457761347
     0.599718690         0.555127919         0.791485965
     0.600184381         0.889215291         0.125182062
     0.601387560         0.891206920         0.458641112
     0.600092888         0.888784230         0.792289555
     0.800044894         0.222377181         0.125876829
     0.800171494         0.222776189         0.459198833
     0.800090432         0.222101957         0.792581081
     0.800103843         0.555583656         0.125376031
     0.799451113         0.555619657         0.458814144
     0.799943745         0.555371523         0.791838109
     0.800069451         0.888950646         0.125458762
     0.800321519         0.888786316         0.458807975
     0.800090551         0.888580024         0.792229652
     0.100029685         0.277901828         0.292709112
     0.099972986         0.277383506         0.625977635
     0.099996522         0.277665287         0.959401548
     0.099647194         0.611228704         0.291966975
     0.100668125         0.610535562         0.624928355
     0.099855788         0.611056447         0.958181322
     0.099657618         0.944815814         0.292026669
     0.099618770         0.944084048         0.625705719
     0.099847242         0.944383860         0.958943367
     0.300280243         0.278216511         0.293009490
     0.299289465         0.275254071         0.626593888
     0.299994439         0.277158082         0.960473299
     0.296958238         0.612932384         0.287607849
     0.301365882         0.610021770         0.622729421
     0.300006688         0.610943735         0.958191812
     0.299862415         0.944532812         0.292083502
     0.299818307         0.943933010         0.625476062
     0.299991637         0.944302559         0.958831549
     0.499719799         0.278216511         0.293009490
     0.500710547         0.275254071         0.626593888
     0.500005543         0.277158082         0.960473299
     0.503041744         0.612932384         0.287607849
     0.498634130         0.610021770         0.622729421
     0.499993294         0.610943735         0.958191812
     0.500137568         0.944532812         0.292083502
     0.500181675         0.943933010         0.625476062
     0.500008345         0.944302559         0.958831549
     0.699970365         0.277901828         0.292709112
     0.700026989         0.277383506         0.625977635
     0.700003445         0.277665287         0.959401548
     0.700352728         0.611228704         0.291966975
     0.699331820         0.610535562         0.624928355
     0.700144172         0.611056447         0.958181322
     0.700342357         0.944815814         0.292026669
     0.700381160         0.944084048         0.625705719
     0.700152755         0.944383860         0.958943367
     0.899999976         0.277990907         0.292466193
     0.899999976         0.277765363         0.625840902
     0.899999976         0.277820051         0.959180832
     0.899999976         0.611051857         0.292126536
     0.899999976         0.610707462         0.625301361
     0.899999976         0.610979736         0.958599389
     0.899999976         0.944645166         0.292234808
     0.899999976         0.944218636         0.625613630
     0.899999976         0.944385231         0.958929062
     0.999875784         0.111421593         0.292400777
     0.999863565         0.111027107         0.625842392
     0.999935865         0.111112557         0.959171414
     0.000139102         0.444462508         0.292412430
     0.000080080         0.444177866         0.625530779
     0.000002364         0.444383979         0.958954275
     0.999906003         0.777873218         0.291956306
     0.999894977         0.777333081         0.625350356
     0.999947011         0.777677953         0.958726048
     0.199998096         0.111177213         0.292481750
     0.199573606         0.109973133         0.625871778
     0.199925944         0.110879727         0.959422708
     0.200387791         0.444220960         0.292487323
     0.200621322         0.443393350         0.626187623
     0.199797735         0.444171935         0.959458351
     0.199597731         0.778448164         0.291557819
     0.199598521         0.777631521         0.625937521
     0.199816853         0.777767539         0.957967818
     0.400000006         0.111055464         0.292696953
     0.400000006         0.110046595         0.626071334
     0.400000006         0.110774033         0.959403038
     0.400000006         0.446625412         0.294511557
     0.400000006         0.436056823         0.635834396
     0.400000006         0.444132537         0.958964109
     0.400000006         0.777808607         0.291809976
     0.400000006         0.777514338         0.624528766
     0.400000006         0.777878582         0.957453430
     0.600001872         0.111177213         0.292481750
     0.600426435         0.109973133         0.625871778
     0.600074112         0.110879727         0.959422708
     0.599612236         0.444220960         0.292487323
     0.599378765         0.443393350         0.626187623
     0.600202322         0.444171935         0.959458351
     0.600402355         0.778448164         0.291557819
     0.600401521         0.777631521         0.625937521
     0.600183189         0.777767539         0.957967818
     0.800124228         0.111421593         0.292400777
     0.800136447         0.111027107         0.625842392
     0.800064147         0.111112557         0.959171414
     0.799860895         0.444462508         0.292412430
     0.799919903         0.444177866         0.625530779
     0.799997628         0.444383979         0.958954275
     0.800093949         0.777873218         0.291956306
     0.800104976         0.777333081         0.625350356
     0.800053060         0.777677953         0.958726048
     0.400000006         0.607922018         0.431198657
     0.400000006         0.542165995         0.509390295
