GaN_ONH                                 
1.0
       15.8909244537         0.0000000000         0.0000000000
        0.0000000000        16.5143318176         0.0000000000
        0.0000000000         0.0000000000        15.4982528687
   Ga    N    O    H
  180  179    1    1
Cartesian
     1.585593020         0.920850768         5.165768053
     1.581613000         0.908135674        10.337176633
     1.586589328         0.915164842         0.002681609
     1.591938724         6.423708390         5.170762866
     1.587062204         6.416888454        10.334161454
     1.586258765         6.420154956         0.005792032
     1.590455924        11.931967405         5.158574211
     1.587402713        11.919268552        10.326863688
     1.589890344        11.925444244        15.488531136
     4.765974216         0.916252712         5.168351370
     4.764535934         0.905848396        10.335723546
     4.766624450         0.913019124         0.003794155
     4.772535756         6.427380929         5.188328312
     4.735467671         6.359699814        10.394881639
     4.768214753         6.419123869         0.003086596
     4.763570764        11.938130301         5.168670070
     4.772482241        11.916524238        10.310537015
     4.767755848        11.931863066        15.472791979
     7.946765537         0.916252712         5.168351370
     7.948202398         0.905848396        10.335723546
     7.946114829         0.913019124         0.003794155
     7.940204470         6.427380929         5.188328312
     7.977272082         6.359699814        10.394881639
     7.944525473         6.419123869         0.003086596
     7.949169462        11.938130301         5.168670070
     7.940257512        11.916524238        10.310537015
     7.944983905        11.931863066        15.472791979
    11.127146732         0.920850768         5.165768053
    11.131125805         0.908135674        10.337176633
    11.126150306         0.915164842         0.002681609
    11.120800674         6.423708390         5.170762866
    11.125676720         6.416888454        10.334161454
    11.126480870         6.420154956         0.005792032
    11.122282999        11.931967405         5.158574211
    11.125336685        11.919268552        10.326863688
    11.122849409        11.925444244        15.488531136
    14.301831629         0.919745364         5.167163404
    14.301831629         0.913325620        10.334098638
    14.301831629         0.915775127         0.001543740
    14.301831629         6.424745875         5.166825767
    14.301831629         6.421530558        10.332887578
    14.301831629         6.423128127         0.001569834
    14.301831629        11.927270178         5.159474884
    14.301831629        11.920155435        10.328533861
    14.301831629        11.924552441        15.494228936
    15.889905296         3.673092206         5.169702380
    15.888330147         3.667480781        10.336481035
    15.889757537         3.669262666         0.003941851
    15.890445184         9.175626352         5.162671583
     0.004095984         9.170494051        10.324768583
     0.000084637         9.174367393        15.493645115
    15.889687446        14.680519448         5.162816615
    15.888297943        14.671480337        10.331307935
    15.889834258        14.677084133        15.496325889
     3.178481403         3.670049393         5.169097774
     3.165438832         3.644236792        10.344110434
     3.174452366         3.664565686         0.012111528
     3.177902681         9.176009257         5.140670666
     3.192158580         9.163215908        10.316709632
     3.172894504         9.172409559        15.483393139
     3.172164944        14.685856490         5.161807860
     3.174956973        14.676889235        10.334079239
     3.176852739        14.677245563        15.491770790
     6.356369876         3.666868035         5.176248199
     6.356369876         3.648603530        10.347640151
     6.356369876         3.660406395         0.017284029
     6.356369876         9.258696004         4.984679531
     6.356369876         9.101673573        10.291008563
     6.356369876         9.169956606        15.487222157
     6.356369876        14.681951649         5.159367266
     6.356369876        14.672667440        10.322405585
     6.356369876        14.676336041        15.492660378
     9.534258586         3.670049393         5.169097774
     9.547301157         3.644236792        10.344110434
     9.538286912         3.664565686         0.012111528
     9.534837309         9.176009257         5.140670666
     9.520581409         9.163215908        10.316709632
     9.539845959         9.172409559        15.483393139
     9.540576229        14.685856490         5.161807860
     9.537782069        14.676889235        10.334079239
     9.535887723        14.677245563        15.491770790
    12.713758910         3.673092206         5.169702380
    12.715334059         3.667480781        10.336481035
    12.713906669         3.669262666         0.003941851
    12.713219022         9.175626352         5.162671583
    12.708643230         9.170494051        10.324768583
    12.712655454         9.174367393        15.493645115
    12.713976760        14.680519448         5.162816615
    12.715366263        14.671480337        10.331307935
    12.713829948        14.677084133        15.496325889
     1.587514716         4.588336840         2.589770023
     1.588967087         4.590061880         7.753614099
     1.587219790         4.583901445        12.921915123
     1.585390207        10.095044550         2.575978862
     1.603097841        10.093158572         7.737125766
     1.591851465        10.088215262        12.903505353
     1.586811203        15.599596082         2.580131198
     1.570938124        15.612254577         7.749996624
     1.586249174        15.592025593        12.915941116
     4.767775265         4.588291069         2.593139004
     4.751276460         4.539847224         7.764347357
     4.762266034         4.564642027        12.942582581
     4.743635616        10.112016383         2.527808294
     4.740475847        10.190988265         7.710638108
     4.774980409        10.081831876        12.899230156
     4.766050937        15.596959060         2.579955451
     4.761082068        15.601205463         7.745694637
     4.767843935        15.590968422        12.913570728
     7.944964961         4.588291069         2.593139004
     7.961462819         4.539847224         7.764347357
     7.950474666         4.564642027        12.942582581
     7.969103663        10.112016383         2.527808294
     7.972263431        10.190988265         7.710638108
     7.937759343        10.081831876        12.899230156
     7.946688816        15.596959060         2.579955451
     7.951657685        15.601205463         7.745694637
     7.944896291        15.590968422        12.913570728
    11.125223971         4.588336840         2.589770023
    11.123771008         4.590061880         7.753614099
    11.125519489         4.583901445        12.921915123
    11.127348480        10.095044550         2.575978862
    11.109641082        10.093158572         7.737125766
    11.120887814        10.088215262        12.903505353
    11.125927721        15.599596082         2.580131198
    11.141801391        15.612254577         7.749996624
    11.126489394        15.592025593        12.915941116
    14.301831629         4.590420176         2.585831539
    14.301831629         4.595674535         7.752363317
    14.301831629         4.587208305        12.918406653
    14.301831629        10.092920364         2.579407888
    14.301831629        10.089726210         7.744096518
    14.301831629        10.088853108        12.908936185
    14.301831629        15.598013278         2.582209214
    14.301831629        15.598706247         7.748063178
    14.301831629        15.593514886        12.914918505
    15.889598412         1.837493152         2.585111231
    15.885535040         1.844362305         7.751974411
    15.889231856         1.833041516        12.918703182
     0.000302642         7.341908970         2.584064833
     0.005116981         7.340916765         7.748020684
    15.889665661         7.338581440        12.914432603
     0.000331677        12.845633173         2.577699148
    15.883953261        12.842017725         7.744277115
    15.890225440        12.839973270        12.911935659
     3.177687909         1.834374792         2.586878630
     3.168028877         1.823209527         7.752621972
     3.174703604         1.824676180        12.923004245
     3.179111036         7.340173595         2.582321914
     3.200992625         7.335941464         7.758639396
     3.168875886         7.335913903        12.926227271
     3.176134546        12.850974152         2.574697134
     3.136429057        12.897178644         7.755275033
     3.178324173        12.838733013        12.900071708
     6.356369876         1.832591061         2.590128214
     6.356369876         1.820527348         7.755588190
     6.356369876         1.824739300        12.922230128
     6.356369876         7.346462977         2.586916273
     6.356369876         7.136670568         7.901604481
     6.356369876         7.323766276        12.907916345
     6.356369876        12.845976704         2.574678889
     6.356369876        12.866989216         7.724944501
     6.356369876        12.838870820        12.892913431
     9.535052317         1.834374792         2.586878630
     9.544711586         1.823209527         7.752621972
     9.538035912         1.824676180        12.923004245
     9.533628716         7.340173595         2.582321914
     9.511747128         7.335941464         7.758639396
     9.543863866         7.335913903        12.926227271
     9.536605680        12.850974152         2.574697134
     9.576311169        12.897178644         7.755275033
     9.534415817        12.838733013        12.900071708
    12.714065794         1.837493152         2.585111231
    12.718129166         1.844362305         7.751974411
    12.714432350         1.833041516        12.918703182
    12.712436657         7.341908970         2.584064833
    12.707623124         7.340916765         7.748020684
    12.713998545         7.338581440        12.914432603
    12.712408242        12.845633173         2.577699148
    12.719710945        12.842017725         7.744277115
    12.713438766        12.839973270        12.911935659
     1.587400108         0.920872731         1.948906996
     1.574979593         0.925572111         7.112118291
     1.585187394         0.912293180        12.283579525
     1.588864792         6.421956281         1.952583823
     1.600531239         6.429296929         7.119023455
     1.584994052         6.417701019        12.281493657
     1.589047360        11.928100953         1.937943257
     1.581542672        11.929443581         7.107478667
     1.586477325        11.921853405        12.272226418
     4.767054940         0.918937167         1.950115284
     4.762336124         0.920402774         7.115092823
     4.765575456         0.912198992        12.283124107
     4.771559221         6.424671558         1.955946338
     4.760248555         6.369611534         7.132754341
     4.747556438         6.397452840        12.329195182
     4.765172907        11.945799223         1.917505240
     4.706653250        12.034586853         7.114050351
     4.766698329        11.916565580        12.259776799
     7.945684813         0.918937167         1.950115284
     7.950403628         0.920402774         7.115092823
     7.947165244         0.912198992        12.283124107
     7.941180532         6.424671558         1.955946338
     7.952490250         6.369611534         7.132754341
     7.965184261         6.397452840        12.329195182
     7.947566845        11.945799223         1.917505240
     8.006086976        12.034586853         7.114050351
     7.946040950        11.916565580        12.259776799
    11.125339526         0.920872731         1.948906996
    11.137759804         0.925572111         7.112118291
    11.127552122         0.912293180        12.283579525
    11.123874250         6.421956281         1.952583823
    11.112207921         6.429296929         7.119023455
    11.127745345         6.417701019        12.281493657
    11.123692392        11.928100953         1.937943257
    11.131196843        11.929443581         7.107478667
    11.126262073        11.921853405        12.272226418
    14.301831629         0.918858728         1.948410240
    14.301831629         0.920886204         7.114841096
    14.301831629         0.914327053        12.281295047
    14.301831629         6.424904844         1.949067732
    14.301831629         6.429779743         7.114242957
    14.301831629         6.421147653        12.279804086
    14.301831629        11.927052641         1.943368315
    14.301831629        11.921940026         7.106435733
    14.301831629        11.922928295        12.275070699
    15.890211233         3.672410557         1.950870927
    15.888199437         3.678999914         7.116779623
    15.889488540         3.667865409        12.283622018
    15.889274479         9.175092845         1.943109429
     0.008722954         9.175687381         7.110817626
     0.000893146         9.171589611        12.272107252
    15.889821944        14.680425936         1.944391619
    15.885815403        14.677712136         7.110722016
    15.889484751        14.674305367        12.278175483
     3.177511972         3.671456002         1.958311646
     3.162921957         3.652581457         7.115159796
     3.172474669         3.658102815        12.290743345
     3.164713298         9.169446723         1.927480316
     3.217557258         9.173568116         7.094501114
     3.182655594         9.167566651        12.266649631
     3.175256043        14.684796365         1.940103258
     3.156136647        14.717686797         7.108135927
     3.176710190        14.677677684        12.279103870
     6.356369876         3.668750322         1.962146206
     6.356369876         3.653713684         7.124734650
     6.356369876         3.661278020        12.295233780
     6.356369876         9.183143687         1.942400899
     6.356369876         9.157657392        12.255646633
     6.356369876        14.681913260         1.942030930
     6.356369876        14.704553855         7.105561386
     6.356369876        14.676136222        12.270207985
     9.535227544         3.671456002         1.958311646
     9.549818743         3.652581457         7.115159796
     9.540264609         3.658102815        12.290743345
     9.548025744         9.169446723         1.927480316
     9.495182968         9.173568116         7.094501114
     9.530084395         9.167566651        12.266649631
     9.537484657        14.684796365         1.940103258
     9.556604289        14.717686797         7.108135927
     9.536030746        14.677677684        12.279103870
    12.713452974         3.672410557         1.950870927
    12.715464769         3.678999914         7.116779623
    12.714176614         3.667865409        12.283622018
    12.714389728         9.175092845         1.943109429
    12.704017237         9.175687381         7.110817626
    12.711845621         9.171589611        12.272107252
    12.713843209        14.680425936         1.944391619
    12.717848803        14.677712136         7.110722016
    12.714178508        14.674305367        12.278175483
     1.589564161         4.589363005         4.536479837
     1.588663163         4.580803264         9.701559683
     1.589037178         4.585456688        14.869047792
     1.583486034        10.094033642         4.524978004
     1.599709567        10.082586858         9.685297674
     1.586800784        10.091188926        14.850136417
     1.583651671        15.603001867         4.525903157
     1.583034351        15.590917237         9.697345454
     1.586664983        15.595868421        14.861946789
     4.771730185         4.594559780         4.541135165
     4.755986277         4.545637059         9.711110519
     4.767188965         4.577080524        14.885658062
     4.718940924        10.122168771         4.457419165
     4.788982466        10.074101926         9.651218030
     4.767383609        10.089327556        14.850299000
     4.765090977        15.598328264         4.526783970
     4.764390069        15.588422942         9.693786177
     4.767144448        15.594525794        14.860213800
     7.941009567         4.594559780         4.541135165
     7.956753475         4.545637059         9.711110519
     7.945550314         4.577080524        14.885658062
     7.993798355        10.122168771         4.457419165
     7.923757286        10.074101926         9.651218030
     7.945355670        10.089327556        14.850299000
     7.947648302        15.598328264         4.526783970
     7.948349210        15.588422942         9.693786177
     7.945594831        15.594525794        14.860213800
    11.123176183         4.589363005         4.536479837
    11.124075998         4.580803264         9.701559683
    11.123701864         4.585456688        14.869047792
    11.129252297        10.094033642         4.524978004
    11.113029120        10.082586858         9.685297674
    11.125938139        10.091188926        14.850136417
    11.129087489        15.603001867         4.525903157
    11.129704099        15.590917237         9.697345454
    11.126074532        15.595868421        14.861946789
    14.301831629         4.590834088         4.532715021
    14.301831629         4.587109380         9.699440560
    14.301831629         4.588012503        14.865627080
    14.301831629        10.091113132         4.527450930
    14.301831629        10.085425668         9.691078613
    14.301831629        10.089922092        14.856615724
    14.301831629        15.600183728         4.529128955
    14.301831629        15.593139856         9.695918233
    14.301831629        15.595891061        14.861725084
    15.888950545         1.840053151         4.531701186
    15.888756375         1.833538480         9.699463654
    15.889905296         1.834949641        14.865481124
     0.002210463         7.340001337         4.531881783
     0.001272553         7.335300665         9.694634196
     0.000037560         7.338704481        14.862115838
    15.889430762        12.846056435         4.524812649
    15.889255535        12.837136429         9.691837950
    15.890082417        12.842831767        14.858578731
     3.178154629         1.836017394         4.532956125
     3.171409100         1.816132803         9.699919072
     3.177008076         1.831104599        14.869375730
     3.184347245         7.336012336         4.533042497
     3.188058268         7.322344902         9.704814117
     3.174970707         7.335202724        14.869928143
     3.171792468        12.855551291         4.518636799
     3.171805018        12.842064973         9.700937988
     3.175274513        12.844311216        14.846827480
     6.356369876         1.834006775         4.536291389
     6.356369876         1.817345991         9.703011846
     6.356369876         1.829359134        14.869070886
     6.356369876         7.375720244         4.564414577
     6.356369876         7.201187059         9.854322250
     6.356369876         7.334552081        14.862268260
     6.356369876        12.844989420         4.522544799
     6.356369876        12.840129779         9.679104734
     6.356369876        12.846145025        14.838855363
     9.534584413         1.836017394         4.532956125
     9.541331126         1.816132803         9.699919072
     9.535732387         1.831104599        14.869375730
     9.528392744         7.336012336         4.533042497
     9.524682668         7.322344902         9.704814117
     9.537769756         7.335202724        14.869928143
     9.540948468        12.855551291         4.518636799
     9.540935208        12.842064973         9.700937988
     9.537465713        12.844311216        14.846827480
    12.714713661         1.840053151         4.531701186
    12.714907831         1.833538480         9.699463654
    12.713758910         1.834949641        14.865481124
    12.710529051         7.340001337         4.531881783
    12.711466752         7.335300665         9.694634196
    12.712701866         7.338704481        14.862115838
    12.714232497        12.846056435         4.524812649
    12.714407724        12.837136429         9.691837950
    12.713582736        12.842831767        14.858578731
     6.356369876        10.039425917         6.682825816
     6.356369876         8.953509691         7.894659594
