Si                                      
   1.00000000000000     
    16.4117644677799213    0.0000342255165138    0.0000000000000000
     0.0000342255165138   16.4117644677799213    0.0000000000000000
     0.0000000000000000    0.0000000000000000   16.4117643294392828
   Si
   216
Direct
  0.0000000000000000  0.0000000000000000  0.0000610933316228
  0.1666664564352250  0.1666664564352250 -0.0000012173186486
  0.1666673162273388  0.0000003185889686  0.1666673014034871
  0.0000003185889686  0.1666673162273388  0.1666673014034871
  0.0833397951631473  0.0833397951631473  0.0833427535580746
  0.2499998544531059  0.2499998544531059  0.0833337501907407
  0.2500000704182715  0.0833330628969275  0.2500000449011532
  0.0833330628969275  0.2500000704182715  0.2500000449011532
  0.0000000000000000  0.0000000000000000  0.3333332598418381
  0.1666667821949420  0.1666667821949420  0.3333332007663953
  0.1666667581044206 -0.0000000259802436  0.5000000162488953
 -0.0000000259802436  0.1666667581044206  0.5000000162488953
  0.0833332031537821  0.0833332031537821  0.4166667806342244
  0.2499999873879459  0.2499999873879459  0.4166667949171445
  0.2500000085535863  0.0833332479869520  0.5833332306097812
  0.0833332479869520  0.2500000085535863  0.5833332306097812
  0.0000000000000000  0.0000000000000000  0.6666667807168754
  0.1666667503128587  0.1666667503128587  0.6666667834106353
  0.1666662449775271  0.0000003088844915  0.8333337439766508
  0.0000003088844915  0.1666662449775271  0.8333337439766508
  0.0833333116295732  0.0833333116295732  0.7499999835050342
  0.2499999894643651  0.2499999894643651  0.7499999584228410
  0.2500000871866142  0.0833330900292582  0.9166666668628697
  0.0833330900292582  0.2500000871866142  0.9166666668628697
 -0.0000000057111240  0.3333332198705866  0.0000000680308241
  0.1666667850476093  0.5000000090305969  0.0000000579381136
  0.1666667140475995  0.3333332602398360  0.1666668169037035
  0.0000000000000000  0.5000000000000000  0.1666668249735108
  0.0833332240745910  0.4166667874138012  0.0833331908071281
  0.2500000242343762  0.5833332336178993  0.0833331934970568
  0.2500000711042793  0.4166667591566836  0.2499999713178384
  0.0833332313933987  0.5833332169645711  0.2499999988628341
  0.0000000645875925  0.3333332757864945  0.3333332209176595
  0.1666667172128585  0.5000000050055922  0.3333332090756658
  0.1666667821452963  0.3333332325981247  0.5000000074943146
  0.0000000000000000  0.5000000000000000  0.5000000251299445
  0.0833332115735163  0.4166667878586882  0.4166667977211815
  0.2500000312883791  0.5833332163026125  0.4166667669958867
  0.2499999731268663  0.4166667515830252  0.5833332088737602
  0.0833332173639593  0.5833332186718546  0.5833332548412363
  0.0000000608247105  0.3333331829392253  0.6666667896881215
  0.1666667977305484  0.4999999824430924  0.6666667632253678
  0.1666668287002532  0.3333331978503417  0.8333332360315238
  0.0000000000000000  0.5000000000000000  0.8333332379224508
  0.0833331950705685  0.4166667779152336  0.7499999793902737
  0.2499999347465075  0.5833332063153228  0.7499999909370130
  0.2499999819641422  0.4166668243543831  0.9166667675470921
  0.0833332217133990  0.5833332427066038  0.9166667399634501
  0.0000000057111240  0.6666667801294135  0.0000000680308241
  0.1666670898894355  0.8333329101105645 -0.0000012146223659
  0.1666667036158564  0.6666667596310283  0.1666668142640678
 -0.0000003185889686  0.8333326837726612  0.1666673014034871
  0.0833333443449337  0.7500000888886621  0.0833331086426159
  0.2499999111113378  0.9166666556550663  0.0833331086426159
  0.2500000003495790  0.7499999996504211  0.2499999850583011
  0.0833331331011974  0.9166668668988026  0.2500000044507607
 -0.0000000645875925  0.6666667242135056  0.3333332209176595
  0.1666668070806419  0.8333331929193580  0.3333332231102274
  0.1666667897779838  0.6666667965713865  0.5000000097827856
  0.0000000259802436  0.8333332418955794  0.5000000162488953
  0.0833331980373800  0.7500000175702018  0.4166667762347386
  0.2499999824297981  0.9166668019626200  0.4166667762347386
  0.2500000064761732  0.7499999935238268  0.5833332194091894
  0.0833332176630996  0.9166667823369004  0.5833332045618048
 -0.0000000608247105  0.6666668170607747  0.6666667896881215
  0.1666667725473998  0.8333332274526003  0.6666667472851898
  0.1666668383886526  0.6666668161009641  0.8333332678430525
 -0.0000003088844915  0.8333337550224729  0.8333337439766508
  0.0833333692166690  0.7500000641954583  0.7500000376155005
  0.2499999358045417  0.9166666307833310  0.7500000376155005
  0.2500001488013727  0.7499998511986273  0.9166672941146792
  0.0833266857322492  0.9166733142677508  0.9166762934797769
  0.3333332198705866 -0.0000000057111240  0.0000000680308241
  0.5000000090305969  0.1666667850476093  0.0000000579381136
  0.5000000000000000  0.0000000000000000  0.1666668249735108
  0.3333332602398360  0.1666667140475995  0.1666668169037035
  0.4166667874138012  0.0833332240745910  0.0833331908071281
  0.5833332336178993  0.2500000242343762  0.0833331934970568
  0.5833332169645711  0.0833332313933987  0.2499999988628341
  0.4166667591566836  0.2500000711042793  0.2499999713178384
  0.3333332757864945  0.0000000645875925  0.3333332209176595
  0.5000000050055922  0.1666667172128585  0.3333332090756658
  0.5000000000000000  0.0000000000000000  0.5000000251299445
  0.3333332325981247  0.1666667821452963  0.5000000074943146
  0.4166667878586882  0.0833332115735163  0.4166667977211815
  0.5833332163026125  0.2500000312883791  0.4166667669958867
  0.5833332186718546  0.0833332173639593  0.5833332548412363
  0.4166667515830252  0.2499999731268663  0.5833332088737602
  0.3333331829392253  0.0000000608247105  0.6666667896881215
  0.4999999824430924  0.1666667977305484  0.6666667632253678
  0.5000000000000000  0.0000000000000000  0.8333332379224508
  0.3333331978503417  0.1666668287002532  0.8333332360315238
  0.4166667779152336  0.0833331950705685  0.7499999793902737
  0.5833332063153228  0.2499999347465075  0.7499999909370130
  0.5833332427066038  0.0833332217133990  0.9166667399634501
  0.4166668243543831  0.2499999819641422  0.9166667675470921
  0.3333331672233076  0.3333331672233076 -0.0000002731119633
  0.5000000000000000  0.5000000000000000 -0.0000002626355308
  0.4999999877543494  0.3333331871704965  0.1666667732141832
  0.3333331871704965  0.4999999877543494  0.1666667732141832
  0.4166667706600621  0.4166667706600621  0.0833334247014781
  0.5833332293399379  0.5833332293399379  0.0833334247014781
  0.5833331934065922  0.4166668065934078  0.2499999902239890
  0.4166668065934078  0.5833331934065922  0.2499999902239890
  0.3333332175882083  0.3333332175882083  0.3333332193036935
  0.5000000000000000  0.5000000000000000  0.3333332200536168
  0.5000000226006126  0.3333332356470136  0.5000000172381526
  0.3333332356470136  0.5000000226006126  0.5000000172381526
  0.4166667932851965  0.4166667932851965  0.4166667764053048
  0.5833332067148036  0.5833332067148036  0.4166667764053048
  0.5833332312161159  0.4166667687838841  0.5833332132585680
  0.4166667687838841  0.5833332312161159  0.5833332132585680
  0.3333332270279258  0.3333332270279258  0.6666667870337786
  0.5000000000000000  0.5000000000000000  0.6666667746527744
  0.5000000120729108  0.3333332802572604  0.8333332348810126
  0.3333332802572604  0.5000000120729108  0.8333332348810126
  0.4166667726642334  0.4166667726642334  0.7499999915708925
  0.5833332273357666  0.5833332273357666  0.7499999915708925
  0.5833332287517631  0.4166667712482369  0.9166669514028897
  0.4166667712482369  0.5833332287517631  0.9166669514028897
  0.3333332927155924  0.6666667072844075 -0.0000003093503331
  0.4999999909694030  0.8333332149523908  0.0000000579381136
  0.5000000122456506  0.6666668128295035  0.1666667732141832
  0.3333332403689717  0.8333332963841437  0.1666668142640678
  0.4166667663821008  0.7499999757656237  0.0833331934970568
  0.5833332125861987  0.9166667759254090  0.0833331908071281
  0.5833332408433164  0.7499999288957206  0.2499999713178384
  0.4166667830354289  0.9166667686066013  0.2499999988628341
  0.3333332052847906  0.6666667947152094  0.3333332561275274
  0.4999999949944079  0.8333332827871415  0.3333332090756658
  0.4999999773993875  0.6666667643529864  0.5000000172381526
  0.3333332034286135  0.8333332102220162  0.5000000097827856
  0.4166667836973875  0.7499999687116209  0.4166667669958867
  0.5833332121413117  0.9166667884264837  0.4166667977211815
  0.5833332484169749  0.7500000268731337  0.5833332088737602
  0.4166667813281454  0.9166667826360406  0.5833332548412363
  0.3333332352863122  0.6666667647136878  0.6666667589356839
  0.5000000175569076  0.8333332022694516  0.6666667632253678
  0.4999999879270892  0.6666667197427396  0.8333332348810126
  0.3333331838990359  0.8333331616113474  0.8333332678430525
  0.4166667936846772  0.7500000652534924  0.7499999909370130
  0.5833332220847665  0.9166668049294314  0.7499999793902737
  0.5833331756456169  0.7500000180358578  0.9166667675470921
  0.4166667572933962  0.9166667782866010  0.9166667399634501
  0.6666667801294135  0.0000000057111240  0.0000000680308241
  0.8333329101105645  0.1666670898894355 -0.0000012146223659
  0.8333326837726612 -0.0000003185889686  0.1666673014034871
  0.6666667596310283  0.1666667036158564  0.1666668142640678
  0.7500000888886621  0.0833333443449337  0.0833331086426159
  0.9166666556550663  0.2499999111113378  0.0833331086426159
  0.9166668668988026  0.0833331331011974  0.2500000044507607
  0.7499999996504211  0.2500000003495790  0.2499999850583011
  0.6666667242135056 -0.0000000645875925  0.3333332209176595
  0.8333331929193580  0.1666668070806419  0.3333332231102274
  0.8333332418955794  0.0000000259802436  0.5000000162488953
  0.6666667965713865  0.1666667897779838  0.5000000097827856
  0.7500000175702018  0.0833331980373800  0.4166667762347386
  0.9166668019626200  0.2499999824297981  0.4166667762347386
  0.9166667823369004  0.0833332176630996  0.5833332045618048
  0.7499999935238268  0.2500000064761732  0.5833332194091894
  0.6666668170607747 -0.0000000608247105  0.6666667896881215
  0.8333332274526003  0.1666667725473998  0.6666667472851898
  0.8333337550224729 -0.0000003088844915  0.8333337439766508
  0.6666668161009641  0.1666668383886526  0.8333332678430525
  0.7500000641954583  0.0833333692166690  0.7500000376155005
  0.9166666307833310  0.2499999358045417  0.7500000376155005
  0.9166733142677508  0.0833266857322492  0.9166762934797769
  0.7499998511986273  0.2500001488013727  0.9166672941146792
  0.6666667072844075  0.3333332927155924 -0.0000003093503331
  0.8333332149523908  0.4999999909694030  0.0000000579381136
  0.8333332963841437  0.3333332403689717  0.1666668142640678
  0.6666668128295035  0.5000000122456506  0.1666667732141832
  0.7499999757656237  0.4166667663821008  0.0833331934970568
  0.9166667759254090  0.5833332125861987  0.0833331908071281
  0.9166667686066013  0.4166667830354289  0.2499999988628341
  0.7499999288957206  0.5833332408433164  0.2499999713178384
  0.6666667947152094  0.3333332052847906  0.3333332561275274
  0.8333332827871415  0.4999999949944079  0.3333332090756658
  0.8333332102220162  0.3333332034286135  0.5000000097827856
  0.6666667643529864  0.4999999773993875  0.5000000172381526
  0.7499999687116209  0.4166667836973875  0.4166667669958867
  0.9166667884264837  0.5833332121413117  0.4166667977211815
  0.9166667826360406  0.4166667813281454  0.5833332548412363
  0.7500000268731337  0.5833332484169749  0.5833332088737602
  0.6666667647136878  0.3333332352863122  0.6666667589356839
  0.8333332022694516  0.5000000175569076  0.6666667632253678
  0.8333331616113474  0.3333331838990359  0.8333332678430525
  0.6666667197427396  0.4999999879270892  0.8333332348810126
  0.7500000652534924  0.4166667936846772  0.7499999909370130
  0.9166668049294314  0.5833332220847665  0.7499999793902737
  0.9166667782866010  0.4166667572933962  0.9166667399634501
  0.7500000180358578  0.5833331756456169  0.9166667675470921
  0.6666668327766924  0.6666668327766924 -0.0000002731119633
  0.8333335435647750  0.8333335435647750 -0.0000012173186486
  0.8333332859524004  0.6666667397601640  0.1666668169037035
  0.6666667397601640  0.8333332859524004  0.1666668169037035
  0.7500001455468941  0.7500001455468941  0.0833337501907407
  0.9166602048368527  0.9166602048368527  0.0833427535580746
  0.9166669371030725  0.7499999295817286  0.2500000449011532
  0.7499999295817286  0.9166669371030725  0.2500000449011532
  0.6666667824117917  0.6666667824117917  0.3333332193036935
  0.8333332178050580  0.8333332178050580  0.3333332007663953
  0.8333332178547037  0.6666667674018754  0.5000000074943146
  0.6666667674018754  0.8333332178547037  0.5000000074943146
  0.7500000126120541  0.7500000126120541  0.4166667949171445
  0.9166667968462179  0.9166667968462179  0.4166667806342244
  0.9166667520130480  0.7499999914464136  0.5833332306097812
  0.7499999914464136  0.9166667520130480  0.5833332306097812
  0.6666667729720741  0.6666667729720741  0.6666667870337786
  0.8333332496871413  0.8333332496871413  0.6666667834106353
  0.8333331712997468  0.6666668021496583  0.8333332360315238
  0.6666668021496583  0.8333331712997468  0.8333332360315238
  0.7500000105356349  0.7500000105356349  0.7499999584228410
  0.9166666883704268  0.9166666883704268  0.7499999835050342
  0.9166669099707417  0.7499999128133858  0.9166666668628697
  0.7499999128133858  0.9166669099707417  0.9166666668628697
 
  0.00000000E+00  0.00000000E+00  0.00000000E+00
  0.00000000E+00  0.00000000E+00  0.00000000E+00
  0.00000000E+00  0.00000000E+00  0.00000000E+00
  0.00000000E+00  0.00000000E+00  0.00000000E+00
  0.00000000E+00  0.00000000E+00  0.00000000E+00
  0.00000000E+00  0.00000000E+00  0.00000000E+00
  0.00000000E+00  0.00000000E+00  0.00000000E+00
  0.00000000E+00  0.00000000E+00  0.00000000E+00
  0.00000000E+00  0.00000000E+00  0.00000000E+00
  0.00000000E+00  0.00000000E+00  0.00000000E+00
  0.00000000E+00  0.00000000E+00  0.00000000E+00
  0.00000000E+00  0.00000000E+00  0.00000000E+00
  0.00000000E+00  0.00000000E+00  0.00000000E+00
  0.00000000E+00  0.00000000E+00  0.00000000E+00
  0.00000000E+00  0.00000000E+00  0.00000000E+00
  0.00000000E+00  0.00000000E+00  0.00000000E+00
  0.00000000E+00  0.00000000E+00  0.00000000E+00
  0.00000000E+00  0.00000000E+00  0.00000000E+00
  0.00000000E+00  0.00000000E+00  0.00000000E+00
  0.00000000E+00  0.00000000E+00  0.00000000E+00
  0.00000000E+00  0.00000000E+00  0.00000000E+00
  0.00000000E+00  0.00000000E+00  0.00000000E+00
  0.00000000E+00  0.00000000E+00  0.00000000E+00
  0.00000000E+00  0.00000000E+00  0.00000000E+00
  0.00000000E+00  0.00000000E+00  0.00000000E+00
  0.00000000E+00  0.00000000E+00  0.00000000E+00
  0.00000000E+00  0.00000000E+00  0.00000000E+00
  0.00000000E+00  0.00000000E+00  0.00000000E+00
  0.00000000E+00  0.00000000E+00  0.00000000E+00
  0.00000000E+00  0.00000000E+00  0.00000000E+00
  0.00000000E+00  0.00000000E+00  0.00000000E+00
  0.00000000E+00  0.00000000E+00  0.00000000E+00
  0.00000000E+00  0.00000000E+00  0.00000000E+00
  0.00000000E+00  0.00000000E+00  0.00000000E+00
  0.00000000E+00  0.00000000E+00  0.00000000E+00
  0.00000000E+00  0.00000000E+00  0.00000000E+00
  0.00000000E+00  0.00000000E+00  0.00000000E+00
  0.00000000E+00  0.00000000E+00  0.00000000E+00
  0.00000000E+00  0.00000000E+00  0.00000000E+00
  0.00000000E+00  0.00000000E+00  0.00000000E+00
  0.00000000E+00  0.00000000E+00  0.00000000E+00
  0.00000000E+00  0.00000000E+00  0.00000000E+00
  0.00000000E+00  0.00000000E+00  0.00000000E+00
  0.00000000E+00  0.00000000E+00  0.00000000E+00
  0.00000000E+00  0.00000000E+00  0.00000000E+00
  0.00000000E+00  0.00000000E+00  0.00000000E+00
  0.00000000E+00  0.00000000E+00  0.00000000E+00
  0.00000000E+00  0.00000000E+00  0.00000000E+00
  0.00000000E+00  0.00000000E+00  0.00000000E+00
  0.00000000E+00  0.00000000E+00  0.00000000E+00
  0.00000000E+00  0.00000000E+00  0.00000000E+00
  0.00000000E+00  0.00000000E+00  0.00000000E+00
  0.00000000E+00  0.00000000E+00  0.00000000E+00
  0.00000000E+00  0.00000000E+00  0.00000000E+00
  0.00000000E+00  0.00000000E+00  0.00000000E+00
  0.00000000E+00  0.00000000E+00  0.00000000E+00
  0.00000000E+00  0.00000000E+00  0.00000000E+00
  0.00000000E+00  0.00000000E+00  0.00000000E+00
  0.00000000E+00  0.00000000E+00  0.00000000E+00
  0.00000000E+00  0.00000000E+00  0.00000000E+00
  0.00000000E+00  0.00000000E+00  0.00000000E+00
  0.00000000E+00  0.00000000E+00  0.00000000E+00
  0.00000000E+00  0.00000000E+00  0.00000000E+00
  0.00000000E+00  0.00000000E+00  0.00000000E+00
  0.00000000E+00  0.00000000E+00  0.00000000E+00
  0.00000000E+00  0.00000000E+00  0.00000000E+00
  0.00000000E+00  0.00000000E+00  0.00000000E+00
  0.00000000E+00  0.00000000E+00  0.00000000E+00
  0.00000000E+00  0.00000000E+00  0.00000000E+00
  0.00000000E+00  0.00000000E+00  0.00000000E+00
  0.00000000E+00  0.00000000E+00  0.00000000E+00
  0.00000000E+00  0.00000000E+00  0.00000000E+00
  0.00000000E+00  0.00000000E+00  0.00000000E+00
  0.00000000E+00  0.00000000E+00  0.00000000E+00
  0.00000000E+00  0.00000000E+00  0.00000000E+00
  0.00000000E+00  0.00000000E+00  0.00000000E+00
  0.00000000E+00  0.00000000E+00  0.00000000E+00
  0.00000000E+00  0.00000000E+00  0.00000000E+00
  0.00000000E+00  0.00000000E+00  0.00000000E+00
  0.00000000E+00  0.00000000E+00  0.00000000E+00
  0.00000000E+00  0.00000000E+00  0.00000000E+00
  0.00000000E+00  0.00000000E+00  0.00000000E+00
  0.00000000E+00  0.00000000E+00  0.00000000E+00
  0.00000000E+00  0.00000000E+00  0.00000000E+00
  0.00000000E+00  0.00000000E+00  0.00000000E+00
  0.00000000E+00  0.00000000E+00  0.00000000E+00
  0.00000000E+00  0.00000000E+00  0.00000000E+00
  0.00000000E+00  0.00000000E+00  0.00000000E+00
  0.00000000E+00  0.00000000E+00  0.00000000E+00
  0.00000000E+00  0.00000000E+00  0.00000000E+00
  0.00000000E+00  0.00000000E+00  0.00000000E+00
  0.00000000E+00  0.00000000E+00  0.00000000E+00
  0.00000000E+00  0.00000000E+00  0.00000000E+00
  0.00000000E+00  0.00000000E+00  0.00000000E+00
  0.00000000E+00  0.00000000E+00  0.00000000E+00
  0.00000000E+00  0.00000000E+00  0.00000000E+00
  0.00000000E+00  0.00000000E+00  0.00000000E+00
  0.00000000E+00  0.00000000E+00  0.00000000E+00
  0.00000000E+00  0.00000000E+00  0.00000000E+00
  0.00000000E+00  0.00000000E+00  0.00000000E+00
  0.00000000E+00  0.00000000E+00  0.00000000E+00
  0.00000000E+00  0.00000000E+00  0.00000000E+00
  0.00000000E+00  0.00000000E+00  0.00000000E+00
  0.00000000E+00  0.00000000E+00  0.00000000E+00
  0.00000000E+00  0.00000000E+00  0.00000000E+00
  0.00000000E+00  0.00000000E+00  0.00000000E+00
  0.00000000E+00  0.00000000E+00  0.00000000E+00
  0.00000000E+00  0.00000000E+00  0.00000000E+00
  0.00000000E+00  0.00000000E+00  0.00000000E+00
  0.00000000E+00  0.00000000E+00  0.00000000E+00
  0.00000000E+00  0.00000000E+00  0.00000000E+00
  0.00000000E+00  0.00000000E+00  0.00000000E+00
  0.00000000E+00  0.00000000E+00  0.00000000E+00
  0.00000000E+00  0.00000000E+00  0.00000000E+00
  0.00000000E+00  0.00000000E+00  0.00000000E+00
  0.00000000E+00  0.00000000E+00  0.00000000E+00
  0.00000000E+00  0.00000000E+00  0.00000000E+00
  0.00000000E+00  0.00000000E+00  0.00000000E+00
  0.00000000E+00  0.00000000E+00  0.00000000E+00
  0.00000000E+00  0.00000000E+00  0.00000000E+00
  0.00000000E+00  0.00000000E+00  0.00000000E+00
  0.00000000E+00  0.00000000E+00  0.00000000E+00
  0.00000000E+00  0.00000000E+00  0.00000000E+00
  0.00000000E+00  0.00000000E+00  0.00000000E+00
  0.00000000E+00  0.00000000E+00  0.00000000E+00
  0.00000000E+00  0.00000000E+00  0.00000000E+00
  0.00000000E+00  0.00000000E+00  0.00000000E+00
  0.00000000E+00  0.00000000E+00  0.00000000E+00
  0.00000000E+00  0.00000000E+00  0.00000000E+00
  0.00000000E+00  0.00000000E+00  0.00000000E+00
  0.00000000E+00  0.00000000E+00  0.00000000E+00
  0.00000000E+00  0.00000000E+00  0.00000000E+00
  0.00000000E+00  0.00000000E+00  0.00000000E+00
  0.00000000E+00  0.00000000E+00  0.00000000E+00
  0.00000000E+00  0.00000000E+00  0.00000000E+00
  0.00000000E+00  0.00000000E+00  0.00000000E+00
  0.00000000E+00  0.00000000E+00  0.00000000E+00
  0.00000000E+00  0.00000000E+00  0.00000000E+00
  0.00000000E+00  0.00000000E+00  0.00000000E+00
  0.00000000E+00  0.00000000E+00  0.00000000E+00
  0.00000000E+00  0.00000000E+00  0.00000000E+00
  0.00000000E+00  0.00000000E+00  0.00000000E+00
  0.00000000E+00  0.00000000E+00  0.00000000E+00
  0.00000000E+00  0.00000000E+00  0.00000000E+00
  0.00000000E+00  0.00000000E+00  0.00000000E+00
  0.00000000E+00  0.00000000E+00  0.00000000E+00
  0.00000000E+00  0.00000000E+00  0.00000000E+00
  0.00000000E+00  0.00000000E+00  0.00000000E+00
  0.00000000E+00  0.00000000E+00  0.00000000E+00
  0.00000000E+00  0.00000000E+00  0.00000000E+00
  0.00000000E+00  0.00000000E+00  0.00000000E+00
  0.00000000E+00  0.00000000E+00  0.00000000E+00
  0.00000000E+00  0.00000000E+00  0.00000000E+00
  0.00000000E+00  0.00000000E+00  0.00000000E+00
  0.00000000E+00  0.00000000E+00  0.00000000E+00
  0.00000000E+00  0.00000000E+00  0.00000000E+00
  0.00000000E+00  0.00000000E+00  0.00000000E+00
  0.00000000E+00  0.00000000E+00  0.00000000E+00
  0.00000000E+00  0.00000000E+00  0.00000000E+00
  0.00000000E+00  0.00000000E+00  0.00000000E+00
  0.00000000E+00  0.00000000E+00  0.00000000E+00
  0.00000000E+00  0.00000000E+00  0.00000000E+00
  0.00000000E+00  0.00000000E+00  0.00000000E+00
  0.00000000E+00  0.00000000E+00  0.00000000E+00
  0.00000000E+00  0.00000000E+00  0.00000000E+00
  0.00000000E+00  0.00000000E+00  0.00000000E+00
  0.00000000E+00  0.00000000E+00  0.00000000E+00
  0.00000000E+00  0.00000000E+00  0.00000000E+00
  0.00000000E+00  0.00000000E+00  0.00000000E+00
  0.00000000E+00  0.00000000E+00  0.00000000E+00
  0.00000000E+00  0.00000000E+00  0.00000000E+00
  0.00000000E+00  0.00000000E+00  0.00000000E+00
  0.00000000E+00  0.00000000E+00  0.00000000E+00
  0.00000000E+00  0.00000000E+00  0.00000000E+00
  0.00000000E+00  0.00000000E+00  0.00000000E+00
  0.00000000E+00  0.00000000E+00  0.00000000E+00
  0.00000000E+00  0.00000000E+00  0.00000000E+00
  0.00000000E+00  0.00000000E+00  0.00000000E+00
  0.00000000E+00  0.00000000E+00  0.00000000E+00
  0.00000000E+00  0.00000000E+00  0.00000000E+00
  0.00000000E+00  0.00000000E+00  0.00000000E+00
  0.00000000E+00  0.00000000E+00  0.00000000E+00
  0.00000000E+00  0.00000000E+00  0.00000000E+00
  0.00000000E+00  0.00000000E+00  0.00000000E+00
  0.00000000E+00  0.00000000E+00  0.00000000E+00
  0.00000000E+00  0.00000000E+00  0.00000000E+00
  0.00000000E+00  0.00000000E+00  0.00000000E+00
  0.00000000E+00  0.00000000E+00  0.00000000E+00
  0.00000000E+00  0.00000000E+00  0.00000000E+00
  0.00000000E+00  0.00000000E+00  0.00000000E+00
  0.00000000E+00  0.00000000E+00  0.00000000E+00
  0.00000000E+00  0.00000000E+00  0.00000000E+00
  0.00000000E+00  0.00000000E+00  0.00000000E+00
  0.00000000E+00  0.00000000E+00  0.00000000E+00
  0.00000000E+00  0.00000000E+00  0.00000000E+00
  0.00000000E+00  0.00000000E+00  0.00000000E+00
  0.00000000E+00  0.00000000E+00  0.00000000E+00
  0.00000000E+00  0.00000000E+00  0.00000000E+00
  0.00000000E+00  0.00000000E+00  0.00000000E+00
  0.00000000E+00  0.00000000E+00  0.00000000E+00
  0.00000000E+00  0.00000000E+00  0.00000000E+00
  0.00000000E+00  0.00000000E+00  0.00000000E+00
  0.00000000E+00  0.00000000E+00  0.00000000E+00
  0.00000000E+00  0.00000000E+00  0.00000000E+00
  0.00000000E+00  0.00000000E+00  0.00000000E+00
  0.00000000E+00  0.00000000E+00  0.00000000E+00
  0.00000000E+00  0.00000000E+00  0.00000000E+00
  0.00000000E+00  0.00000000E+00  0.00000000E+00
  0.00000000E+00  0.00000000E+00  0.00000000E+00
  0.00000000E+00  0.00000000E+00  0.00000000E+00
  0.00000000E+00  0.00000000E+00  0.00000000E+00
  0.00000000E+00  0.00000000E+00  0.00000000E+00
  0.00000000E+00  0.00000000E+00  0.00000000E+00
  0.00000000E+00  0.00000000E+00  0.00000000E+00
  0.00000000E+00  0.00000000E+00  0.00000000E+00
  0.00000000E+00  0.00000000E+00  0.00000000E+00
