Si                                      
   1.00000000000000     
    16.4117644677799213    0.0000342255165138    0.0000000000000000
     0.0000342255165138   16.4117644677799213    0.0000000000000000
     0.0000000000000000    0.0000000000000000   16.4117643294392828
   Si
   216
Direct
  0.0000000000000000  0.0000000000000000  0.0000610933316239
  0.1666664564352232  0.1666664564352232  0.9999987826813523
  0.1666673162273398  0.0000003185889668  0.1666673014034856
  0.0000003185889668  0.1666673162273398  0.1666673014034856
  0.0833397951631483  0.0833397951631483  0.0833427535580711
  0.2499998544531081  0.2499998544531081  0.0833337501907394
  0.2500000704182739  0.0833330628969264  0.2500000449011566
  0.0833330628969264  0.2500000704182739  0.2500000449011566
  0.0000000000000000  0.0000000000000000  0.3333332598418366
  0.1666667821949446  0.1666667821949446  0.3333332007663969
  0.1666667581044194  0.9999999740197580  0.5000000162488973
  0.9999999740197580  0.1666667581044194  0.5000000162488973
  0.0833332031537850  0.0833332031537850  0.4166667806342232
  0.2499999873879446  0.2499999873879446  0.4166667949171412
  0.2500000085535845  0.0833332479869497  0.5833332306097816
  0.0833332479869497  0.2500000085535845  0.5833332306097816
  0.0000000000000000  0.0000000000000000  0.6666667807168736
  0.1666667503128565  0.1666667503128565  0.6666667834106335
  0.1666662449775274  0.0000003088844949  0.8333337439766524
  0.0000003088844949  0.1666662449775274  0.8333337439766524
  0.0833333116295734  0.0833333116295734  0.7499999835050346
  0.2499999894643636  0.2499999894643636  0.7499999584228405
  0.2500000871866135  0.0833330900292566  0.9166666668628665
  0.0833330900292566  0.2500000871866135  0.9166666668628665
  0.9999999942888778  0.3333332198705889  0.0000000680308219
  0.1666667850476102  0.5000000090306003  0.0000000579381165
  0.1666667140476008  0.3333332602398329  0.1666668169037067
  0.0000000000000000  0.5000000000000000  0.1666668249735110
  0.0833332240745932  0.4166667874138028  0.0833331908071315
  0.2500000242343745  0.5833332336178998  0.0833331934970545
  0.2500000711042816  0.4166667591566835  0.2499999713178411
  0.0833332313933965  0.5833332169645686  0.2499999988628332
  0.0000000645875957  0.3333332757864937  0.3333332209176589
  0.1666667172128555  0.5000000050055888  0.3333332090756684
  0.1666667821452990  0.3333332325981218  0.5000000074943145
  0.0000000000000000  0.5000000000000000  0.5000000251299426
  0.0833332115735175  0.4166667878586878  0.4166667977211844
  0.2500000312883799  0.5833332163026128  0.4166667669958883
  0.2499999731268687  0.4166667515830227  0.5833332088737606
  0.0833332173639576  0.5833332186718536  0.5833332548412358
  0.0000000608247106  0.3333331829392279  0.6666667896881222
  0.1666667977305494  0.4999999824430930  0.6666667632253649
  0.1666668287002508  0.3333331978503438  0.8333332360315211
  0.0000000000000000  0.5000000000000000  0.8333332379224530
  0.0833331950705656  0.4166667779152320  0.7499999793902745
  0.2499999347465049  0.5833332063153236  0.7499999909370132
  0.2499999819641445  0.4166668243543796  0.9166667675470919
  0.0833332217133957  0.5833332427066011  0.9166667399634534
  0.0000000057111222  0.6666667801294111  0.0000000680308219
  0.1666670898894367  0.8333329101105633  0.9999987853776346
  0.1666667036158529  0.6666667596310276  0.1666668142640688
  0.9999996814110332  0.8333326837726602  0.1666673014034856
  0.0833333443449362  0.7500000888886618  0.0833331086426128
  0.2499999111113382  0.9166666556550638  0.0833331086426128
  0.2500000003495799  0.7499999996504201  0.2499999850583023
  0.0833331331011991  0.9166668668988009  0.2500000044507615
  0.9999999354124043  0.6666667242135063  0.3333332209176589
  0.1666668070806452  0.8333331929193548  0.3333332231102304
  0.1666667897779845  0.6666667965713842  0.5000000097827879
  0.0000000259802420  0.8333332418955806  0.5000000162488973
  0.0833331980373799  0.7500000175702013  0.4166667762347416
  0.2499999824297987  0.9166668019626201  0.4166667762347416
  0.2500000064761707  0.7499999935238293  0.5833332194091909
  0.0833332176630961  0.9166667823369039  0.5833332045618036
  0.9999999391752894  0.6666668170607721  0.6666667896881222
  0.1666667725474014  0.8333332274525986  0.6666667472851913
  0.1666668383886503  0.6666668161009639  0.8333332678430523
  0.9999996911155051  0.8333337550224726  0.8333337439766524
  0.0833333692166676  0.7500000641954614  0.7500000376155000
  0.2499999358045386  0.9166666307833324  0.7500000376155000
  0.2500001488013694  0.7499998511986306  0.9166672941146814
  0.0833266857322457  0.9166733142677543  0.9166762934797745
  0.3333332198705889  0.9999999942888778  0.0000000680308219
  0.5000000090306003  0.1666667850476102  0.0000000579381165
  0.5000000000000000  0.0000000000000000  0.1666668249735110
  0.3333332602398329  0.1666667140476008  0.1666668169037067
  0.4166667874138028  0.0833332240745932  0.0833331908071315
  0.5833332336178998  0.2500000242343745  0.0833331934970545
  0.5833332169645686  0.0833332313933965  0.2499999988628332
  0.4166667591566835  0.2500000711042816  0.2499999713178411
  0.3333332757864937  0.0000000645875957  0.3333332209176589
  0.5000000050055888  0.1666667172128555  0.3333332090756684
  0.5000000000000000  0.0000000000000000  0.5000000251299426
  0.3333332325981218  0.1666667821452990  0.5000000074943145
  0.4166667878586878  0.0833332115735175  0.4166667977211844
  0.5833332163026128  0.2500000312883799  0.4166667669958883
  0.5833332186718536  0.0833332173639576  0.5833332548412358
  0.4166667515830227  0.2499999731268687  0.5833332088737606
  0.3333331829392279  0.0000000608247106  0.6666667896881222
  0.4999999824430930  0.1666667977305494  0.6666667632253649
  0.5000000000000000  0.0000000000000000  0.8333332379224530
  0.3333331978503438  0.1666668287002508  0.8333332360315211
  0.4166667779152320  0.0833331950705656  0.7499999793902745
  0.5833332063153236  0.2499999347465049  0.7499999909370132
  0.5833332427066011  0.0833332217133957  0.9166667399634534
  0.4166668243543796  0.2499999819641445  0.9166667675470919
  0.3333331672233086  0.3333331672233086  0.9999997268880350
  0.5000000000000000  0.5000000000000000  0.9999997373644689
  0.4999999877543502  0.3333331871704956  0.1666667732141818
  0.3333331871704956  0.4999999877543502  0.1666667732141818
  0.4166667706600649  0.4166667706600649  0.0833334247014790
  0.5833332293399351  0.5833332293399351  0.0833334247014790
  0.5833331934065953  0.4166668065934047  0.2499999902239907
  0.4166668065934047  0.5833331934065953  0.2499999902239907
  0.3333332175882049  0.3333332175882049  0.3333332193036966
  0.5000000000000000  0.5000000000000000  0.3333332200536177
  0.5000000226006094  0.3333332356470109  0.5000000172381505
  0.3333332356470109  0.5000000226006094  0.5000000172381505
  0.4166667932851951  0.4166667932851951  0.4166667764053074
  0.5833332067148049  0.5833332067148049  0.4166667764053074
  0.5833332312161161  0.4166667687838839  0.5833332132585696
  0.4166667687838839  0.5833332312161161  0.5833332132585696
  0.3333332270279286  0.3333332270279286  0.6666667870337761
  0.5000000000000000  0.5000000000000000  0.6666667746527750
  0.5000000120729098  0.3333332802572571  0.8333332348810103
  0.3333332802572571  0.5000000120729098  0.8333332348810103
  0.4166667726642359  0.4166667726642359  0.7499999915708955
  0.5833332273357641  0.5833332273357641  0.7499999915708955
  0.5833332287517621  0.4166667712482379  0.9166669514028882
  0.4166667712482379  0.5833332287517621  0.9166669514028882
  0.3333332927155936  0.6666667072844064  0.9999996906496662
  0.4999999909693997  0.8333332149523898  0.0000000579381165
  0.5000000122456498  0.6666668128295044  0.1666667732141818
  0.3333332403689724  0.8333332963841471  0.1666668142640688
  0.4166667663821002  0.7499999757656255  0.0833331934970545
  0.5833332125861972  0.9166667759254068  0.0833331908071315
  0.5833332408433165  0.7499999288957184  0.2499999713178411
  0.4166667830354314  0.9166667686066035  0.2499999988628332
  0.3333332052847879  0.6666667947152121  0.3333332561275242
  0.4999999949944112  0.8333332827871445  0.3333332090756684
  0.4999999773993906  0.6666667643529891  0.5000000172381505
  0.3333332034286158  0.8333332102220155  0.5000000097827879
  0.4166667836973872  0.7499999687116201  0.4166667669958883
  0.5833332121413122  0.9166667884264825  0.4166667977211844
  0.5833332484169773  0.7500000268731313  0.5833332088737606
  0.4166667813281464  0.9166667826360424  0.5833332548412358
  0.3333332352863110  0.6666667647136890  0.6666667589356834
  0.5000000175569070  0.8333332022694506  0.6666667632253649
  0.4999999879270902  0.6666667197427429  0.8333332348810103
  0.3333331838990361  0.8333331616113497  0.8333332678430523
  0.4166667936846764  0.7500000652534951  0.7499999909370132
  0.5833332220847680  0.9166668049294344  0.7499999793902745
  0.5833331756456204  0.7500000180358555  0.9166667675470919
  0.4166667572933989  0.9166667782866043  0.9166667399634534
  0.6666667801294111  0.0000000057111222  0.0000000680308219
  0.8333329101105633  0.1666670898894367  0.9999987853776346
  0.8333326837726602  0.9999996814110332  0.1666673014034856
  0.6666667596310276  0.1666667036158529  0.1666668142640688
  0.7500000888886618  0.0833333443449362  0.0833331086426128
  0.9166666556550638  0.2499999111113382  0.0833331086426128
  0.9166668668988009  0.0833331331011991  0.2500000044507615
  0.7499999996504201  0.2500000003495799  0.2499999850583023
  0.6666667242135063  0.9999999354124043  0.3333332209176589
  0.8333331929193548  0.1666668070806452  0.3333332231102304
  0.8333332418955806  0.0000000259802420  0.5000000162488973
  0.6666667965713842  0.1666667897779845  0.5000000097827879
  0.7500000175702013  0.0833331980373799  0.4166667762347416
  0.9166668019626201  0.2499999824297987  0.4166667762347416
  0.9166667823369039  0.0833332176630961  0.5833332045618036
  0.7499999935238293  0.2500000064761707  0.5833332194091909
  0.6666668170607721  0.9999999391752894  0.6666667896881222
  0.8333332274525986  0.1666667725474014  0.6666667472851913
  0.8333337550224726  0.9999996911155051  0.8333337439766524
  0.6666668161009639  0.1666668383886503  0.8333332678430523
  0.7500000641954614  0.0833333692166676  0.7500000376155000
  0.9166666307833324  0.2499999358045386  0.7500000376155000
  0.9166733142677543  0.0833266857322457  0.9166762934797745
  0.7499998511986306  0.2500001488013694  0.9166672941146814
  0.6666667072844064  0.3333332927155936  0.9999996906496662
  0.8333332149523898  0.4999999909693997  0.0000000579381165
  0.8333332963841471  0.3333332403689724  0.1666668142640688
  0.6666668128295044  0.5000000122456498  0.1666667732141818
  0.7499999757656255  0.4166667663821002  0.0833331934970545
  0.9166667759254068  0.5833332125861972  0.0833331908071315
  0.9166667686066035  0.4166667830354314  0.2499999988628332
  0.7499999288957184  0.5833332408433165  0.2499999713178411
  0.6666667947152121  0.3333332052847879  0.3333332561275242
  0.8333332827871445  0.4999999949944112  0.3333332090756684
  0.8333332102220155  0.3333332034286158  0.5000000097827879
  0.6666667643529891  0.4999999773993906  0.5000000172381505
  0.7499999687116201  0.4166667836973872  0.4166667669958883
  0.9166667884264825  0.5833332121413122  0.4166667977211844
  0.9166667826360424  0.4166667813281464  0.5833332548412358
  0.7500000268731313  0.5833332484169773  0.5833332088737606
  0.6666667647136890  0.3333332352863110  0.6666667589356834
  0.8333332022694506  0.5000000175569070  0.6666667632253649
  0.8333331616113497  0.3333331838990361  0.8333332678430523
  0.6666667197427429  0.4999999879270902  0.8333332348810103
  0.7500000652534951  0.4166667936846764  0.7499999909370132
  0.9166668049294344  0.5833332220847680  0.7499999793902745
  0.9166667782866043  0.4166667572933989  0.9166667399634534
  0.7500000180358555  0.5833331756456204  0.9166667675470919
  0.6666668327766914  0.6666668327766914  0.9999997268880350
  0.8333335435647768  0.8333335435647768  0.9999987826813523
  0.8333332859523992  0.6666667397601671  0.1666668169037067
  0.6666667397601671  0.8333332859523992  0.1666668169037067
  0.7500001455468919  0.7500001455468919  0.0833337501907394
  0.9166602048368517  0.9166602048368517  0.0833427535580711
  0.9166669371030736  0.7499999295817261  0.2500000449011566
  0.7499999295817261  0.9166669371030736  0.2500000449011566
  0.6666667824117951  0.6666667824117951  0.3333332193036966
  0.8333332178050554  0.8333332178050554  0.3333332007663969
  0.8333332178547010  0.6666667674018782  0.5000000074943145
  0.6666667674018782  0.8333332178547010  0.5000000074943145
  0.7500000126120554  0.7500000126120554  0.4166667949171412
  0.9166667968462150  0.9166667968462150  0.4166667806342232
  0.9166667520130503  0.7499999914464155  0.5833332306097816
  0.7499999914464155  0.9166667520130503  0.5833332306097816
  0.6666667729720714  0.6666667729720714  0.6666667870337761
  0.8333332496871435  0.8333332496871435  0.6666667834106335
  0.8333331712997492  0.6666668021496562  0.8333332360315211
  0.6666668021496562  0.8333331712997492  0.8333332360315211
  0.7500000105356364  0.7500000105356364  0.7499999584228405
  0.9166666883704266  0.9166666883704266  0.7499999835050346
  0.9166669099707434  0.7499999128133865  0.9166666668628665
  0.7499999128133865  0.9166669099707434  0.9166666668628665
 
  0.00000000E+00  0.00000000E+00  0.00000000E+00
  0.00000000E+00  0.00000000E+00  0.00000000E+00
  0.00000000E+00  0.00000000E+00  0.00000000E+00
  0.00000000E+00  0.00000000E+00  0.00000000E+00
  0.00000000E+00  0.00000000E+00  0.00000000E+00
  0.00000000E+00  0.00000000E+00  0.00000000E+00
  0.00000000E+00  0.00000000E+00  0.00000000E+00
  0.00000000E+00  0.00000000E+00  0.00000000E+00
  0.00000000E+00  0.00000000E+00  0.00000000E+00
  0.00000000E+00  0.00000000E+00  0.00000000E+00
  0.00000000E+00  0.00000000E+00  0.00000000E+00
  0.00000000E+00  0.00000000E+00  0.00000000E+00
  0.00000000E+00  0.00000000E+00  0.00000000E+00
  0.00000000E+00  0.00000000E+00  0.00000000E+00
  0.00000000E+00  0.00000000E+00  0.00000000E+00
  0.00000000E+00  0.00000000E+00  0.00000000E+00
  0.00000000E+00  0.00000000E+00  0.00000000E+00
  0.00000000E+00  0.00000000E+00  0.00000000E+00
  0.00000000E+00  0.00000000E+00  0.00000000E+00
  0.00000000E+00  0.00000000E+00  0.00000000E+00
  0.00000000E+00  0.00000000E+00  0.00000000E+00
  0.00000000E+00  0.00000000E+00  0.00000000E+00
  0.00000000E+00  0.00000000E+00  0.00000000E+00
  0.00000000E+00  0.00000000E+00  0.00000000E+00
  0.00000000E+00  0.00000000E+00  0.00000000E+00
  0.00000000E+00  0.00000000E+00  0.00000000E+00
  0.00000000E+00  0.00000000E+00  0.00000000E+00
  0.00000000E+00  0.00000000E+00  0.00000000E+00
  0.00000000E+00  0.00000000E+00  0.00000000E+00
  0.00000000E+00  0.00000000E+00  0.00000000E+00
  0.00000000E+00  0.00000000E+00  0.00000000E+00
  0.00000000E+00  0.00000000E+00  0.00000000E+00
  0.00000000E+00  0.00000000E+00  0.00000000E+00
  0.00000000E+00  0.00000000E+00  0.00000000E+00
  0.00000000E+00  0.00000000E+00  0.00000000E+00
  0.00000000E+00  0.00000000E+00  0.00000000E+00
  0.00000000E+00  0.00000000E+00  0.00000000E+00
  0.00000000E+00  0.00000000E+00  0.00000000E+00
  0.00000000E+00  0.00000000E+00  0.00000000E+00
  0.00000000E+00  0.00000000E+00  0.00000000E+00
  0.00000000E+00  0.00000000E+00  0.00000000E+00
  0.00000000E+00  0.00000000E+00  0.00000000E+00
  0.00000000E+00  0.00000000E+00  0.00000000E+00
  0.00000000E+00  0.00000000E+00  0.00000000E+00
  0.00000000E+00  0.00000000E+00  0.00000000E+00
  0.00000000E+00  0.00000000E+00  0.00000000E+00
  0.00000000E+00  0.00000000E+00  0.00000000E+00
  0.00000000E+00  0.00000000E+00  0.00000000E+00
  0.00000000E+00  0.00000000E+00  0.00000000E+00
  0.00000000E+00  0.00000000E+00  0.00000000E+00
  0.00000000E+00  0.00000000E+00  0.00000000E+00
  0.00000000E+00  0.00000000E+00  0.00000000E+00
  0.00000000E+00  0.00000000E+00  0.00000000E+00
  0.00000000E+00  0.00000000E+00  0.00000000E+00
  0.00000000E+00  0.00000000E+00  0.00000000E+00
  0.00000000E+00  0.00000000E+00  0.00000000E+00
  0.00000000E+00  0.00000000E+00  0.00000000E+00
  0.00000000E+00  0.00000000E+00  0.00000000E+00
  0.00000000E+00  0.00000000E+00  0.00000000E+00
  0.00000000E+00  0.00000000E+00  0.00000000E+00
  0.00000000E+00  0.00000000E+00  0.00000000E+00
  0.00000000E+00  0.00000000E+00  0.00000000E+00
  0.00000000E+00  0.00000000E+00  0.00000000E+00
  0.00000000E+00  0.00000000E+00  0.00000000E+00
  0.00000000E+00  0.00000000E+00  0.00000000E+00
  0.00000000E+00  0.00000000E+00  0.00000000E+00
  0.00000000E+00  0.00000000E+00  0.00000000E+00
  0.00000000E+00  0.00000000E+00  0.00000000E+00
  0.00000000E+00  0.00000000E+00  0.00000000E+00
  0.00000000E+00  0.00000000E+00  0.00000000E+00
  0.00000000E+00  0.00000000E+00  0.00000000E+00
  0.00000000E+00  0.00000000E+00  0.00000000E+00
  0.00000000E+00  0.00000000E+00  0.00000000E+00
  0.00000000E+00  0.00000000E+00  0.00000000E+00
  0.00000000E+00  0.00000000E+00  0.00000000E+00
  0.00000000E+00  0.00000000E+00  0.00000000E+00
  0.00000000E+00  0.00000000E+00  0.00000000E+00
  0.00000000E+00  0.00000000E+00  0.00000000E+00
  0.00000000E+00  0.00000000E+00  0.00000000E+00
  0.00000000E+00  0.00000000E+00  0.00000000E+00
  0.00000000E+00  0.00000000E+00  0.00000000E+00
  0.00000000E+00  0.00000000E+00  0.00000000E+00
  0.00000000E+00  0.00000000E+00  0.00000000E+00
  0.00000000E+00  0.00000000E+00  0.00000000E+00
  0.00000000E+00  0.00000000E+00  0.00000000E+00
  0.00000000E+00  0.00000000E+00  0.00000000E+00
  0.00000000E+00  0.00000000E+00  0.00000000E+00
  0.00000000E+00  0.00000000E+00  0.00000000E+00
  0.00000000E+00  0.00000000E+00  0.00000000E+00
  0.00000000E+00  0.00000000E+00  0.00000000E+00
  0.00000000E+00  0.00000000E+00  0.00000000E+00
  0.00000000E+00  0.00000000E+00  0.00000000E+00
  0.00000000E+00  0.00000000E+00  0.00000000E+00
  0.00000000E+00  0.00000000E+00  0.00000000E+00
  0.00000000E+00  0.00000000E+00  0.00000000E+00
  0.00000000E+00  0.00000000E+00  0.00000000E+00
  0.00000000E+00  0.00000000E+00  0.00000000E+00
  0.00000000E+00  0.00000000E+00  0.00000000E+00
  0.00000000E+00  0.00000000E+00  0.00000000E+00
  0.00000000E+00  0.00000000E+00  0.00000000E+00
  0.00000000E+00  0.00000000E+00  0.00000000E+00
  0.00000000E+00  0.00000000E+00  0.00000000E+00
  0.00000000E+00  0.00000000E+00  0.00000000E+00
  0.00000000E+00  0.00000000E+00  0.00000000E+00
  0.00000000E+00  0.00000000E+00  0.00000000E+00
  0.00000000E+00  0.00000000E+00  0.00000000E+00
  0.00000000E+00  0.00000000E+00  0.00000000E+00
  0.00000000E+00  0.00000000E+00  0.00000000E+00
  0.00000000E+00  0.00000000E+00  0.00000000E+00
  0.00000000E+00  0.00000000E+00  0.00000000E+00
  0.00000000E+00  0.00000000E+00  0.00000000E+00
  0.00000000E+00  0.00000000E+00  0.00000000E+00
  0.00000000E+00  0.00000000E+00  0.00000000E+00
  0.00000000E+00  0.00000000E+00  0.00000000E+00
  0.00000000E+00  0.00000000E+00  0.00000000E+00
  0.00000000E+00  0.00000000E+00  0.00000000E+00
  0.00000000E+00  0.00000000E+00  0.00000000E+00
  0.00000000E+00  0.00000000E+00  0.00000000E+00
  0.00000000E+00  0.00000000E+00  0.00000000E+00
  0.00000000E+00  0.00000000E+00  0.00000000E+00
  0.00000000E+00  0.00000000E+00  0.00000000E+00
  0.00000000E+00  0.00000000E+00  0.00000000E+00
  0.00000000E+00  0.00000000E+00  0.00000000E+00
  0.00000000E+00  0.00000000E+00  0.00000000E+00
  0.00000000E+00  0.00000000E+00  0.00000000E+00
  0.00000000E+00  0.00000000E+00  0.00000000E+00
  0.00000000E+00  0.00000000E+00  0.00000000E+00
  0.00000000E+00  0.00000000E+00  0.00000000E+00
  0.00000000E+00  0.00000000E+00  0.00000000E+00
  0.00000000E+00  0.00000000E+00  0.00000000E+00
  0.00000000E+00  0.00000000E+00  0.00000000E+00
  0.00000000E+00  0.00000000E+00  0.00000000E+00
  0.00000000E+00  0.00000000E+00  0.00000000E+00
  0.00000000E+00  0.00000000E+00  0.00000000E+00
  0.00000000E+00  0.00000000E+00  0.00000000E+00
  0.00000000E+00  0.00000000E+00  0.00000000E+00
  0.00000000E+00  0.00000000E+00  0.00000000E+00
  0.00000000E+00  0.00000000E+00  0.00000000E+00
  0.00000000E+00  0.00000000E+00  0.00000000E+00
  0.00000000E+00  0.00000000E+00  0.00000000E+00
  0.00000000E+00  0.00000000E+00  0.00000000E+00
  0.00000000E+00  0.00000000E+00  0.00000000E+00
  0.00000000E+00  0.00000000E+00  0.00000000E+00
  0.00000000E+00  0.00000000E+00  0.00000000E+00
  0.00000000E+00  0.00000000E+00  0.00000000E+00
  0.00000000E+00  0.00000000E+00  0.00000000E+00
  0.00000000E+00  0.00000000E+00  0.00000000E+00
  0.00000000E+00  0.00000000E+00  0.00000000E+00
  0.00000000E+00  0.00000000E+00  0.00000000E+00
  0.00000000E+00  0.00000000E+00  0.00000000E+00
  0.00000000E+00  0.00000000E+00  0.00000000E+00
  0.00000000E+00  0.00000000E+00  0.00000000E+00
  0.00000000E+00  0.00000000E+00  0.00000000E+00
  0.00000000E+00  0.00000000E+00  0.00000000E+00
  0.00000000E+00  0.00000000E+00  0.00000000E+00
  0.00000000E+00  0.00000000E+00  0.00000000E+00
  0.00000000E+00  0.00000000E+00  0.00000000E+00
  0.00000000E+00  0.00000000E+00  0.00000000E+00
  0.00000000E+00  0.00000000E+00  0.00000000E+00
  0.00000000E+00  0.00000000E+00  0.00000000E+00
  0.00000000E+00  0.00000000E+00  0.00000000E+00
  0.00000000E+00  0.00000000E+00  0.00000000E+00
  0.00000000E+00  0.00000000E+00  0.00000000E+00
  0.00000000E+00  0.00000000E+00  0.00000000E+00
  0.00000000E+00  0.00000000E+00  0.00000000E+00
  0.00000000E+00  0.00000000E+00  0.00000000E+00
  0.00000000E+00  0.00000000E+00  0.00000000E+00
  0.00000000E+00  0.00000000E+00  0.00000000E+00
  0.00000000E+00  0.00000000E+00  0.00000000E+00
  0.00000000E+00  0.00000000E+00  0.00000000E+00
  0.00000000E+00  0.00000000E+00  0.00000000E+00
  0.00000000E+00  0.00000000E+00  0.00000000E+00
  0.00000000E+00  0.00000000E+00  0.00000000E+00
  0.00000000E+00  0.00000000E+00  0.00000000E+00
  0.00000000E+00  0.00000000E+00  0.00000000E+00
  0.00000000E+00  0.00000000E+00  0.00000000E+00
  0.00000000E+00  0.00000000E+00  0.00000000E+00
  0.00000000E+00  0.00000000E+00  0.00000000E+00
  0.00000000E+00  0.00000000E+00  0.00000000E+00
  0.00000000E+00  0.00000000E+00  0.00000000E+00
  0.00000000E+00  0.00000000E+00  0.00000000E+00
  0.00000000E+00  0.00000000E+00  0.00000000E+00
  0.00000000E+00  0.00000000E+00  0.00000000E+00
  0.00000000E+00  0.00000000E+00  0.00000000E+00
  0.00000000E+00  0.00000000E+00  0.00000000E+00
  0.00000000E+00  0.00000000E+00  0.00000000E+00
  0.00000000E+00  0.00000000E+00  0.00000000E+00
  0.00000000E+00  0.00000000E+00  0.00000000E+00
  0.00000000E+00  0.00000000E+00  0.00000000E+00
  0.00000000E+00  0.00000000E+00  0.00000000E+00
  0.00000000E+00  0.00000000E+00  0.00000000E+00
  0.00000000E+00  0.00000000E+00  0.00000000E+00
  0.00000000E+00  0.00000000E+00  0.00000000E+00
  0.00000000E+00  0.00000000E+00  0.00000000E+00
  0.00000000E+00  0.00000000E+00  0.00000000E+00
  0.00000000E+00  0.00000000E+00  0.00000000E+00
  0.00000000E+00  0.00000000E+00  0.00000000E+00
  0.00000000E+00  0.00000000E+00  0.00000000E+00
  0.00000000E+00  0.00000000E+00  0.00000000E+00
  0.00000000E+00  0.00000000E+00  0.00000000E+00
  0.00000000E+00  0.00000000E+00  0.00000000E+00
  0.00000000E+00  0.00000000E+00  0.00000000E+00
  0.00000000E+00  0.00000000E+00  0.00000000E+00
  0.00000000E+00  0.00000000E+00  0.00000000E+00
  0.00000000E+00  0.00000000E+00  0.00000000E+00
  0.00000000E+00  0.00000000E+00  0.00000000E+00
  0.00000000E+00  0.00000000E+00  0.00000000E+00
  0.00000000E+00  0.00000000E+00  0.00000000E+00
  0.00000000E+00  0.00000000E+00  0.00000000E+00
  0.00000000E+00  0.00000000E+00  0.00000000E+00
  0.00000000E+00  0.00000000E+00  0.00000000E+00
  0.00000000E+00  0.00000000E+00  0.00000000E+00
  0.00000000E+00  0.00000000E+00  0.00000000E+00
  0.00000000E+00  0.00000000E+00  0.00000000E+00
  0.00000000E+00  0.00000000E+00  0.00000000E+00
  0.00000000E+00  0.00000000E+00  0.00000000E+00
