&inputpp
  prefix = 'SiVH3',
  outdir = './QEOutput',
  !
  exportDir = './output'
  writeWFC = .true.
/
