SiVH3                                   
   1.00000000000000     
    10.9327231220000005    0.0000000000000000    0.0000000000000000
     0.0000000000000000   10.9327231220000005    0.0000000000000000
     0.0000000000000000    0.0000000000000000   10.9327231220000005
   Si   H 
    63     3
Direct
  0.1241983453944123  0.1238642793734375  0.1243622726924079
  0.3747754529445187  0.3744418313114652  0.1250155281897547
  0.3747685298399043  0.1245245152188982  0.3749494454873512
  0.1248463506099458  0.3744507220434153  0.3749292117091535
  0.9989827396231581  0.9986551499449194  0.9991498449533647
  0.2494851778540938  0.2491360199297170  0.0003063347409461
  0.2494741267155487  0.9998122987504886  0.2496499921192614
  0.0001400338179488  0.2491475421751841  0.2496341742716554
  0.1244230317357831  0.1240911652816997  0.6249833028794364
  0.3679102107301602  0.3676382170287437  0.6356485584450629
  0.3741784083761809  0.1225449600337186  0.8765458672081721
  0.1228405803037155  0.3738287783156709  0.8766035747641412
 -0.0003207242631669 -0.0007101011047721  0.5001030917403119
  0.2492248417343378  0.2489155542199885  0.4999392925568336
  0.2492623337518834  0.9989893780119631  0.7500834676265641
  0.9993211614586724  0.2489198994019554  0.7501018891615830
  0.1244020618255225  0.6244950498057539  0.1245707765906176
  0.3741604662306239  0.8761073948074858  0.1230039195626861
  0.3679600309185078  0.6351304890344416  0.3680482421611413
  0.1228952231566364  0.8760414342013559  0.3743462917749123
 -0.0003786741747872  0.4996059188822828 -0.0001780084366096
  0.2492471204754940  0.7496092619851334  0.9994818993129866
  0.2492148701081167  0.4994476961521009  0.2493675847311945
  0.9993216576630986  0.7495969517098396  0.2494285857065793
  0.1239248786022885  0.6237306628032703  0.6242399236427697
  0.3737577136179460  0.8744750382349131  0.6243871334443427
  0.3737370845911472  0.6238941163575875  0.8749856547966262
  0.1236568972962490  0.8735110511172178  0.8739895926398313
  0.9991329442286827  0.4988877901258651  0.4993862563618767
  0.2459920693696593  0.7523720049337537  0.4996635243949268
  0.2459159398219523  0.4991584844335917  0.7529495896388745
  0.9984439661875767  0.7483895206237319  0.7488749567352967
  0.6248127789117814  0.1241046682935693  0.1245975262917309
  0.8763823589597364  0.3738468806158561  0.1230437978651484
  0.8764464943551422  0.1224909803503930  0.3743227031648311
  0.6355017641173291  0.3675784608451912  0.3681509413103573
  0.4999389306896108 -0.0006564807937383 -0.0001964965812319
  0.7499177070071930  0.2489341749861417  0.9994902457842604
  0.7499277694282439  0.9989870580206229  0.2494153167254433
  0.4997715436466191  0.2489156157627692  0.2494226827925956
  0.6240776877465449  0.1235882929814305  0.6242307272048080
  0.8748211051327590  0.3734043389105214  0.6243847466849695
  0.8738263652310235  0.1233336089890278  0.8740074815527162
  0.6242176603056397  0.3734243679730046  0.8749751336531976
  0.4992209879787984  0.9988025569571274  0.4993843635848489
  0.7527990249825685  0.2455659455469838  0.4996542153155286
  0.7487154724695104  0.9981129087269373  0.7488910270238063
  0.4994993560959501  0.2456418113855469  0.7528856612463066
  0.6240671456702972  0.6237413233412934  0.1240878048638787
  0.8738363014959721  0.8734993248941805  0.1238259031596154
  0.8748110443715001  0.6238952778780257  0.3739206507981893
  0.6242151247985097  0.8744848775472902  0.3739027714260088
  0.4992160643739700  0.4988926468361490  0.9992991506859195
  0.7487244104934030  0.7483791208441278  0.9986093773962700
  0.7527256431223160  0.4991685268079996  0.2461426479435475
  0.4994872655084348  0.7524464554100497  0.2460758435227894
  0.6288632633736519  0.6285406487363955  0.6290324093794948
  0.8741465476195208  0.8738227191123762  0.6238112510934991
  0.8741459128135962  0.6233130105024980  0.8742999458349926
  0.6236488627894108  0.8738196106767321  0.8743272855008806
  0.7489713783740164  0.7486545138836611  0.4982997880588349
  0.7489762381341598  0.4977997374217444  0.7491304863694056
  0.4981376463639834  0.7486473010935779  0.7491554654522163
  0.4514037621701729  0.4513017884058440  0.5676302760280767
  0.4516091290413351  0.5670189387042821  0.4514731084751160
  0.5675453808814797  0.4510740652075732  0.4518667457878728
 
  0.00000000E+00  0.00000000E+00  0.00000000E+00
  0.00000000E+00  0.00000000E+00  0.00000000E+00
  0.00000000E+00  0.00000000E+00  0.00000000E+00
  0.00000000E+00  0.00000000E+00  0.00000000E+00
  0.00000000E+00  0.00000000E+00  0.00000000E+00
  0.00000000E+00  0.00000000E+00  0.00000000E+00
  0.00000000E+00  0.00000000E+00  0.00000000E+00
  0.00000000E+00  0.00000000E+00  0.00000000E+00
  0.00000000E+00  0.00000000E+00  0.00000000E+00
  0.00000000E+00  0.00000000E+00  0.00000000E+00
  0.00000000E+00  0.00000000E+00  0.00000000E+00
  0.00000000E+00  0.00000000E+00  0.00000000E+00
  0.00000000E+00  0.00000000E+00  0.00000000E+00
  0.00000000E+00  0.00000000E+00  0.00000000E+00
  0.00000000E+00  0.00000000E+00  0.00000000E+00
  0.00000000E+00  0.00000000E+00  0.00000000E+00
  0.00000000E+00  0.00000000E+00  0.00000000E+00
  0.00000000E+00  0.00000000E+00  0.00000000E+00
  0.00000000E+00  0.00000000E+00  0.00000000E+00
  0.00000000E+00  0.00000000E+00  0.00000000E+00
  0.00000000E+00  0.00000000E+00  0.00000000E+00
  0.00000000E+00  0.00000000E+00  0.00000000E+00
  0.00000000E+00  0.00000000E+00  0.00000000E+00
  0.00000000E+00  0.00000000E+00  0.00000000E+00
  0.00000000E+00  0.00000000E+00  0.00000000E+00
  0.00000000E+00  0.00000000E+00  0.00000000E+00
  0.00000000E+00  0.00000000E+00  0.00000000E+00
  0.00000000E+00  0.00000000E+00  0.00000000E+00
  0.00000000E+00  0.00000000E+00  0.00000000E+00
  0.00000000E+00  0.00000000E+00  0.00000000E+00
  0.00000000E+00  0.00000000E+00  0.00000000E+00
  0.00000000E+00  0.00000000E+00  0.00000000E+00
  0.00000000E+00  0.00000000E+00  0.00000000E+00
  0.00000000E+00  0.00000000E+00  0.00000000E+00
  0.00000000E+00  0.00000000E+00  0.00000000E+00
  0.00000000E+00  0.00000000E+00  0.00000000E+00
  0.00000000E+00  0.00000000E+00  0.00000000E+00
  0.00000000E+00  0.00000000E+00  0.00000000E+00
  0.00000000E+00  0.00000000E+00  0.00000000E+00
  0.00000000E+00  0.00000000E+00  0.00000000E+00
  0.00000000E+00  0.00000000E+00  0.00000000E+00
  0.00000000E+00  0.00000000E+00  0.00000000E+00
  0.00000000E+00  0.00000000E+00  0.00000000E+00
  0.00000000E+00  0.00000000E+00  0.00000000E+00
  0.00000000E+00  0.00000000E+00  0.00000000E+00
  0.00000000E+00  0.00000000E+00  0.00000000E+00
  0.00000000E+00  0.00000000E+00  0.00000000E+00
  0.00000000E+00  0.00000000E+00  0.00000000E+00
  0.00000000E+00  0.00000000E+00  0.00000000E+00
  0.00000000E+00  0.00000000E+00  0.00000000E+00
  0.00000000E+00  0.00000000E+00  0.00000000E+00
  0.00000000E+00  0.00000000E+00  0.00000000E+00
  0.00000000E+00  0.00000000E+00  0.00000000E+00
  0.00000000E+00  0.00000000E+00  0.00000000E+00
  0.00000000E+00  0.00000000E+00  0.00000000E+00
  0.00000000E+00  0.00000000E+00  0.00000000E+00
  0.00000000E+00  0.00000000E+00  0.00000000E+00
  0.00000000E+00  0.00000000E+00  0.00000000E+00
  0.00000000E+00  0.00000000E+00  0.00000000E+00
  0.00000000E+00  0.00000000E+00  0.00000000E+00
  0.00000000E+00  0.00000000E+00  0.00000000E+00
  0.00000000E+00  0.00000000E+00  0.00000000E+00
  0.00000000E+00  0.00000000E+00  0.00000000E+00
  0.00000000E+00  0.00000000E+00  0.00000000E+00
  0.00000000E+00  0.00000000E+00  0.00000000E+00
  0.00000000E+00  0.00000000E+00  0.00000000E+00
