
&control
  prefix = 'SiVH3',
  pseudo_dir = './pseudo',
  outdir = './',

  calculation = 'relax'
  restart_mode = 'from_scratch',
  tprnfor = .true.
  forc_conv_thr = 1.0d-4
  wf_collect = .true.
/
&system    
  ibrav=  0, celldm(1) = 30.7893077475, nat = 218, ntyp= 2,
  ecutwfc = 100.0,
  ecutrho = 600.0,
  nbnd = 1000,
  occupations='smearing', smearing='gauss', degauss=0.001
  la2F = .true.
  nosym = .true.
/
&electrons
  mixing_mode = 'plain'
  mixing_beta = 0.7 
  conv_thr =  1.0d-12
/
&ions
  ion_dynamics = 'bfgs'
/
CELL_PARAMETERS (alat)
   1.006896307   0.000000000   0.000000000
   0.000000000   1.006896307   0.000000000
   0.000000000   0.000000000   1.006896307
ATOMIC_SPECIES
 Si  28.08550  Si.pbe-n-kjpaw_psl.0.1.UPF
 H    1.00794  H.pbe-kjpaw_psl.0.1.UPF
ATOMIC_POSITIONS (alat)
Si      -0.000773041  -0.000010808  -0.000418786
Si       0.167011331   0.167779541  -0.000782852
Si       0.166880269  -0.000096202   0.167215046
Si      -0.000862902   0.167647646   0.167207518
Si       0.083170861   0.083935836   0.083355908
Si       0.250799456   0.251558224   0.083096515
Si       0.250903273   0.083629153   0.251062691
Si       0.082864107   0.251661984   0.251064762
Si      -0.000722175   0.000048385   0.334981832
Si       0.166874202   0.167633767   0.334941026
Si       0.167211480   0.000281729   0.502933318
Si      -0.000484374   0.168009128   0.502926718
Si       0.083078180   0.083857367   0.418966075
Si       0.250688103   0.251433474   0.418894572
Si       0.251264646   0.084269639   0.586700941
Si       0.083506546   0.252053768   0.586706196
Si      -0.000594454   0.000209469   0.670906358
Si       0.167365437   0.168138756   0.670621019
Si       0.167078514   0.000202296   0.838550320
Si      -0.000580304   0.167864799   0.838549364
Si       0.083353598   0.084136264   0.754621895
Si       0.251275526   0.252057397   0.754486196
Si       0.251031396   0.083997844   0.922298952
Si       0.083233792   0.251806243   0.922296938
Si      -0.001087639   0.335591051  -0.001023396
Si       0.167015401   0.503646832  -0.000514518
Si       0.165227568   0.335483690   0.165555219
Si      -0.000890436   0.503559154   0.167377215
Si       0.082122787   0.419779805   0.082415218
Si       0.251045148   0.587604110   0.083316752
Si       0.248286296   0.419618527   0.248460075
Si       0.083104897   0.587503780   0.251249838
Si      -0.000799871   0.335663676   0.335135579
Si       0.166885904   0.503566023   0.335175367
Si       0.167367320   0.336189441   0.502575870
Si      -0.000813709   0.503627404   0.503103362
Si       0.082937404   0.419776660   0.418992740
Si       0.248298578   0.590265173   0.419130423
Si       0.250659732   0.419876002   0.587336684
Si       0.082847686   0.587691208   0.587108309
Si      -0.000492944   0.335832014   0.670749032
Si       0.166841605   0.503818255   0.671138442
Si       0.167225171   0.335836769   0.838483674
Si      -0.000742096   0.503778769   0.838705836
Si       0.083064994   0.419788925   0.754911295
Si       0.250872733   0.587693937   0.755124048
Si       0.250964591   0.419661721   0.922587574
Si       0.083024352   0.587590020   0.922718542
Si      -0.000937628   0.671346400  -0.000175177
Si       0.166982408   0.839165688  -0.000401953
Si       0.167168268   0.671359731   0.167397804
Si      -0.000938647   0.838932901   0.167406060
Si       0.083109617   0.755196777   0.083559711
Si       0.250923617   0.923098792   0.083309602
Si       0.251039576   0.755437800   0.251160646
Si       0.083028437   0.922934269   0.251162397
Si      -0.000894979   0.671370878   0.335204272
Si       0.167005450   0.839269309   0.335124007
Si       0.165228877   0.673166480   0.503270826
Si      -0.001073675   0.839747677   0.503179739
Si       0.082130054   0.756312713   0.418990417
Si       0.250953832   0.923081387   0.419103220
Si       0.250767463   0.755647312   0.587188929
Si       0.083219797   0.923363463   0.586958904
Si      -0.000878928   0.671555685   0.671119135
Si       0.166994548   0.839535144   0.670976711
Si       0.166863753   0.671555137   0.838853783
Si      -0.000795742   0.839198277   0.838774344
Si       0.083143073   0.755422145   0.754837203
Si       0.251030598   0.923350386   0.754747096
Si       0.250926677   0.755456383   0.922552573
Si       0.083158429   0.923094358   0.922561485
Si       0.334824397  -0.000311990  -0.001011096
Si       0.502876713   0.167785743  -0.000532978
Si       0.502793021  -0.000143720   0.167351429
Si       0.334721759   0.165989660   0.165552700
Si       0.419017438   0.082898486   0.082414622
Si       0.586850235   0.251798099   0.083294043
Si       0.586739463   0.083847474   0.251220951
Si       0.418851162   0.249043708   0.248452083
Si       0.334887021  -0.000054967   0.335124359
Si       0.502796196   0.167615651   0.335157711
Si       0.502857905  -0.000058735   0.503103978
Si       0.335427510   0.168096345   0.502572714
Si       0.419007854   0.083670995   0.418977817
Si       0.589477502   0.249049517   0.419117534
Si       0.586924968   0.083617006   0.587097199
Si       0.419103488   0.251355727   0.587385535
Si       0.335043003   0.000282516   0.670754636
Si       0.503053712   0.167560812   0.671186963
Si       0.503007370   0.000017585   0.838726020
Si       0.335048281   0.168001994   0.838485957
Si       0.418999077   0.083807221   0.754951863
Si       0.586922303   0.251655882   0.755115296
Si       0.586828002   0.083807289   0.922695987
Si       0.418887133   0.251740461   0.922574664
Si       0.334843272   0.335613192  -0.000525757
Si       0.502578402   0.503350679  -0.000349069
Si       0.502692750   0.335381190   0.167069110
Si       0.334644064   0.503441775   0.167089004
Si       0.418668226   0.419417383   0.083506822
Si       0.586089735   0.586862640   0.084317204
Si       0.585936401   0.419123491   0.252032747
Si       0.418360439   0.586712177   0.252047571
Si       0.330105785   0.330868338   0.327004849
Si       0.505001312   0.505772436   0.332976174
Si       0.510885905   0.330779513   0.507911841
Si       0.330077026   0.511678473   0.507864016
Si       0.585944527   0.586724978   0.419600665
Si       0.589437363   0.419610444   0.589636800
Si       0.418826568   0.590245364   0.589647564
Si       0.335418745   0.336183347   0.670628414
Si       0.502765582   0.503562526   0.671085009
Si       0.502856914   0.335651959   0.838791236
Si       0.334874183   0.503632060   0.838804804
Si       0.418988031   0.419767001   0.755060487
Si       0.586713345   0.587489601   0.754859873
Si       0.586694642   0.419604397   0.922690578
Si       0.418828821   0.587469802   0.922700718
Si       0.334838151   0.671572101  -0.000595717
Si       0.502805846   0.839267415  -0.000534770
Si       0.501964677   0.671224885   0.167519787
Si       0.334836336   0.839348135   0.167187062
Si       0.418628496   0.755527395   0.083224406
Si       0.586655983   0.922704578   0.083721097
Si       0.586087172   0.754440622   0.251871830
Si       0.418835615   0.922955290   0.251275316
Si       0.334637939   0.671663057   0.335309644
Si       0.502564973   0.839092978   0.335402739
Si       0.502674780   0.671656139   0.503342098
Si       0.334815741   0.839281375   0.503155686
Si       0.418639450   0.755243891   0.419340808
Si       0.586688304   0.922947108   0.419146653
Si       0.586827685   0.755437521   0.586938590
Si       0.418872698   0.923076306   0.587020805
Si       0.334696963   0.673159365   0.672713938
Si       0.502862035   0.839271791   0.670960256
Si       0.502780110   0.671363129   0.838868271
Si       0.334828863   0.839751739   0.839037796
Si       0.418997529   0.756298583   0.755820289
Si       0.586820910   0.922929177   0.754943806
Si       0.586648601   0.754998612   0.922925476
Si       0.418920585   0.923130665   0.922499603
Si       0.670587730  -0.000157086  -0.000198681
Si       0.838402481   0.167762456  -0.000406304
Si       0.838175625  -0.000160258   0.167404147
Si       0.670599832   0.167921921   0.167378627
Si       0.754446141   0.083872595   0.083544261
Si       0.922329291   0.251700310   0.083314117
Si       0.922168243   0.083806799   0.251161695
Si       0.754668005   0.251803285   0.251144034
Si       0.670603109  -0.000136416   0.335190818
Si       0.838505576   0.167792004   0.335118721
Si       0.839002621  -0.000303371   0.503156574
Si       0.672401112   0.165989410   0.503246825
Si       0.755558882   0.082888363   0.418967379
Si       0.922314516   0.251745287   0.419101556
Si       0.922576589   0.084024815   0.586937635
Si       0.754845971   0.251568831   0.587164684
Si       0.670787587  -0.000101267   0.671105913
Si       0.838736084   0.167795542   0.670948433
Si       0.838429419  -0.000017901   0.838770265
Si       0.670787512   0.167646838   0.838827757
Si       0.754656175   0.083920130   0.754822728
Si       0.922571400   0.251807493   0.754722640
Si       0.922327558   0.083926548   0.922567727
Si       0.754688374   0.251696353   0.922536105
Si       0.670802175   0.335607183  -0.000609510
Si       0.838518978   0.503553344  -0.000536945
Si       0.838584234   0.335612827   0.167194936
Si       0.670459751   0.502735201   0.167507047
Si       0.754763801   0.419390399   0.083216212
Si       0.921936402   0.587402360   0.083745415
Si       0.922197982   0.419604716   0.251291906
Si       0.753652426   0.586854648   0.251882426
Si       0.670885027   0.335394120   0.335295253
Si       0.838322891   0.503343453   0.335402885
Si       0.838506168   0.335607869   0.503144572
Si       0.670870556   0.503436040   0.503321586
Si       0.754466793   0.419408621   0.419316910
Si       0.922184386   0.587457874   0.419153068
Si       0.922302178   0.419660864   0.587013454
Si       0.754645945   0.587590233   0.586924418
Si       0.672372425   0.335497294   0.672711107
Si       0.838486665   0.503642654   0.670950707
Si       0.838980299   0.335591788   0.839017139
Si       0.670592031   0.503557897   0.838863354
Si       0.755529523   0.419776502   0.755824277
Si       0.922143927   0.587594654   0.754945719
Si       0.922363901   0.419674668   0.922470304
Si       0.754248703   0.587401892   0.922926511
Si       0.670201389   0.670954133   0.000178096
Si       0.838188187   0.838954945  -0.000203641
Si       0.837794263   0.670950581   0.167795355
Si       0.670202522   0.838573913   0.167779569
Si       0.754138221   0.754896006   0.083850165
Si       0.922132277   0.922903265   0.083555124
Si       0.921936871   0.755003422   0.251348427
Si       0.754257953   0.922704876   0.251343326
Si       0.670472226   0.671253620   0.335989792
Si       0.838540612   0.839296637   0.335199341
Si       0.838565459   0.671553055   0.503137475
Si       0.670788420   0.839347524   0.503137010
Si       0.754769122   0.755544568   0.419349667
Si       0.922406662   0.923155211   0.419079389
Si       0.922300386   0.755437099   0.587063355
Si       0.754681489   0.923089607   0.587047731
Si       0.670584817   0.671353246   0.670815898
Si       0.838382087   0.839159268   0.671002491
Si       0.838166504   0.671357263   0.838915529
Si       0.670580016   0.838932195   0.838904562
Si       0.754427862   0.755193791   0.754872644
Si       0.922309075   0.923084484   0.754824660
Si       0.922133975   0.755198700   0.922748720
Si       0.754433776   0.922897675   0.922735090
H        0.465056019   0.386713371   0.451898126
H        0.386262545   0.386957226   0.372516928
H        0.386108694   0.466033659   0.451774450
K_POINTS {automatic}
  1 1 1 0 0 0

