GaN_CN                                  
1.0
        9.5889339447         0.0000000000         0.0000000000
        0.0000000000        11.0723476410         0.0000000000
        0.0000000000         0.0000000000        10.4212007523
   Ga    N    C
   48   47    1
Cartesian
     1.593388877         0.914356120         5.207709845
     1.598311594         0.921183276         0.002076869
     1.608791586         6.445395426         5.196229715
     1.599382669         6.454142580         0.001287921
     4.794466972         0.932186845         5.198908433
     4.794466972         0.919827299         0.003286566
     4.794466972         6.428485845         5.199015581
     4.794466972         6.454791324        10.402470536
     7.995544782         0.914356120         5.207709845
     7.990622065         0.921183276         0.002076869
     7.980142216         6.445395426         5.196229715
     7.989550990         6.454142580         0.001287921
     0.000000000         3.687289471         5.205493886
     0.000000000         3.692000619         0.002375249
     0.000000000         9.210450464         5.207252367
     0.000000000         9.220025212        10.421129941
     3.217887520         3.697781238         5.199846062
     3.197527086         3.687769264        10.403455683
     3.193855481         9.228715610         5.205516247
     3.195767299         9.222507335         0.000632532
     6.371046997         3.697781238         5.199846062
     6.391407144         3.687769264        10.403455683
     6.395078749         9.228715610         5.205516247
     6.393166931         9.222507335         0.000632532
     1.607957273         4.610455112         2.607007424
     1.598174852         4.615391307         7.810494057
     1.597371545        10.154570271         2.606873255
     1.595736069        10.153945286         7.814902994
     4.794466972         4.618628758         2.630417710
     4.794466972         4.617773445         7.780097986
     4.794466972        10.158877852         2.607047489
     4.794466972        10.157477410         7.811099059
     7.980976672         4.610455112         2.607007424
     7.990758664         4.615391307         7.810494057
     7.991562256        10.154570271         2.606873255
     7.993198018        10.153945286         7.814902994
     0.000000000         1.852959623         2.605355160
     0.000000000         1.852809482         7.814263829
     0.000000000         7.378862104         2.608217118
     0.000000000         7.377922976         7.808356674
     3.195243764         1.863250762         2.608300352
     3.194176118         1.848521040         7.811140677
     3.206750394         7.381784422         2.606999349
     3.196341416         7.388915326         7.808948631
     6.393690466         1.863250762         2.608300352
     6.394758112         1.848521040         7.811140677
     6.382184122         7.381784422         2.606999349
     6.392592528         7.388915326         7.808948631
     1.596115861         0.925120122         1.960342104
     1.592953074         0.922248952         7.172184008
     1.599878342         6.462209312         1.961317002
     1.599006021         6.461835773         7.164117107
     4.794466972         0.930102103         1.962789287
     4.794466972         0.926698754         7.166118459
     4.794466972         6.475918730         1.924407220
     4.794466972         6.484509473         7.187606590
     7.992817941         0.925120122         1.960342104
     7.995980871         0.922248952         7.172184008
     7.989055460         6.462209312         1.961317002
     7.989927638         6.461835773         7.164117107
     0.000000000         3.695253909         1.958927430
     0.000000000         3.693002774         7.170573982
     0.000000000         9.226473714         1.960396455
     0.000000000         9.225402594         7.171844859
     3.186826621         3.688859194         1.924655526
     3.179699169         3.682788191         7.188401664
     3.195366360         9.235109995         1.959908385
     3.193674587         9.237991395         7.170585784
     6.402107610         3.688859194         1.924655526
     6.409235347         3.682788191         7.188401664
     6.393568156         9.235109995         1.959908385
     6.395259929         9.237991395         7.170585784
     1.579630074         4.602314134         4.563169331
     1.592865770         4.614725074         9.771444114
     1.588159097        10.143637978         4.566251176
     1.595679629        10.147187921         9.777217100
     4.794466972         4.610813472         9.753841288
     4.794466972        10.151540379         4.566852451
     4.794466972        10.145917492         9.775300847
     8.009303585         4.602314134         4.563169331
     7.996067746         4.614725074         9.771444114
     8.000774990        10.143637978         4.566251176
     7.993254030        10.147187921         9.777217100
     0.000000000         1.838807699         4.565211368
     0.000000000         1.844721136         9.776562406
     0.000000000         7.370910206         4.566157072
     0.000000000         7.377412825         9.773495158
     3.176979186         1.819475393         4.565483122
     3.196173096         1.833035825         9.771995697
     3.187783673         7.405184742         4.564384615
     3.188931621         7.383706235         9.770553382
     6.411955330         1.819475393         4.565483122
     6.392761134         1.833035825         9.771995697
     6.401150272         7.405184742         4.564384615
     6.400002609         7.383706235         9.770553382
     4.794466972         4.606590366         4.567099980
