GaN_ONH                                 
    1.000000000000000     
    15.8909244537000003    0.0000000000000000    0.0000000000000000
     0.0000000000000000   16.5143318175999987    0.0000000000000000
     0.0000000000000000    0.0000000000000000   15.4982528686999999
   Ga   N    O    H 
   180   179     1     1
Direct
  0.0997825781872452  0.0557304328139887  0.3335874605056645
  0.0995307025809417  0.0549047308502325  0.6672495975329304
  0.0998575128331790  0.0551598716553587  0.0004451430611899
  0.1002117673261992  0.3889423248258491  0.3337413375696385
  0.0999088606356995  0.3884722102017775  0.6668863225368367
  0.0998337902389226  0.3885280857563118  0.0004695887196223
  0.1000929616243512  0.7224906842008920  0.3328782298653953
  0.0999032740509321  0.7216466548022070  0.6663259422708118
  0.1000522181018944  0.7218653112578847 -0.0006063821434383
  0.2999136289623689  0.0554810808453813  0.3336437780852518
  0.2998217946848539  0.0547919975178859  0.6670691539621052
  0.2999793376300751  0.0550605788215964  0.0004163270181132
  0.3003449139878848  0.3892323101469582  0.3347398420558024
  0.2980147432977572  0.3850802886649449  0.6706947889015016
  0.3000623439787208  0.3885007447764398  0.0002022102092775
  0.2997765197084586  0.7229092154229664  0.3334301401454792
  0.3003299449568599  0.7215406214769519  0.6651967123116357
  0.3000351403039229  0.7223330652400770 -0.0017160575019130
  0.5000863530376264  0.0554810808453813  0.3336437780852518
  0.5001781873151416  0.0547919975178859  0.6670691539621052
  0.5000206443699206  0.0550605788215964  0.0004163270181132
  0.4996551280121156  0.3892323101469582  0.3347398420558024
  0.5019852397022420  0.3850802886649449  0.6706947889015016
  0.4999376980212655  0.3885007447764398  0.0002022102092775
  0.5002234922915395  0.7229092154229664  0.3334301401454792
  0.4996700670431384  0.7215406214769519  0.6651967123116357
  0.4999648716960828  0.7223330652400770 -0.0017160575019130
  0.7002174338127527  0.0557304328139887  0.3335874605056645
  0.7004692724190568  0.0549047308502325  0.6672495975329304
  0.7001424841668219  0.0551598716553587  0.0004451430611899
  0.6997882226737975  0.3889423248258491  0.3337413375696385
  0.7000911433643052  0.3884722102017775  0.6668863225368367
  0.7001661997610737  0.3885280857563118  0.0004695887196223
  0.6999070213756479  0.7224906842008920  0.3328782298653953
  0.7000967229490681  0.7216466548022070  0.6663259422708118
  0.6999477648981050  0.7218653112578847 -0.0006063821434383
  0.8999999759999966  0.0556280070568672  0.3337229442648381
  0.8999999759999966  0.0551856643421154  0.6671046887363092
  0.8999999759999966  0.0551722147615029  0.0004294710003073
  0.8999999759999966  0.3889849279111929  0.3335430534095482
  0.8999999759999966  0.3887193287450337  0.6668924148071412
  0.8999999759999966  0.3886617592174876  0.0002736832466704
  0.8999999759999966  0.7221776607767245  0.3329784241095458
  0.8999999759999966  0.7216715883250377  0.6665201334632546
  0.8999999759999966  0.7217684072921319 -0.0001725311588260
  0.9999383244070289  0.2223691086513737  0.3338549169660067
 -0.0001675264148980  0.2219697356980651  0.6672338527095079
 -0.0000734519063011  0.2219302971712889  0.0005424864438973
 -0.0000275637873956  0.5555505512386080  0.3331450600805363
  0.0002418613687444  0.5551663364989724  0.6662023727296801
 -0.0000023973210809  0.5552619551607629 -0.0002769915999630
  0.9999210261485003  0.8888926153883242  0.3333168305677014
  0.9998301466101290  0.8882723342436374  0.6668231364349734
 -0.0000683510928697  0.8884644429560358  0.0000957453060039
  0.2000478413438712  0.2222474649837760  0.3337309249008804
  0.1992374540112371  0.2206056253572624  0.6676169879461449
  0.1997758529784993  0.2216759148763681  0.0009672143414914
  0.1999737118681026  0.5556508689401305  0.3316151462500834
  0.2008795447351948  0.5548094088196690  0.6656035305568679
  0.1996800289563622  0.5551906541702849 -0.0010159798375572
  0.1996218521313721  0.8892724292167692  0.3331937442131287
  0.1997905128943123  0.8886747975371750  0.6669127128820678
  0.1999221175997331  0.8885351383656616 -0.0002859028219223
  0.4000000059999991  0.2220453095751414  0.3341321225056470
  0.4000000059999991  0.2208620689675741  0.6677720801726308
  0.4000000059999991  0.2214722132880431  0.0012311398990229
  0.4000000059999991  0.5606970572074448  0.3214674241209413
  0.4000000059999991  0.5511724801516055  0.6639195822124563
  0.4000000059999991  0.5550916244749204 -0.0008126860536646
  0.4000000059999991  0.8890705016635891  0.3329804119912593
  0.4000000059999991  0.8884619711246950  0.6660911827237502
  0.4000000059999991  0.8885172422820050 -0.0002827609757415
  0.5999521706561268  0.2222474649837760  0.3337309249008804
  0.6007625729887588  0.2206056253572624  0.6676169879461449
  0.6002241590214991  0.2216759148763681  0.0009672143414914
  0.6000263301318908  0.5556508689401305  0.3316151462500834
  0.5991204822648089  0.5548094088196690  0.6656035305568679
  0.6003200270436323  0.5551906541702849 -0.0010159798375572
  0.6003781898686289  0.8892724292167692  0.3331937442131287
  0.6002094841056886  0.8886747975371750  0.6669127128820678
  0.6000779094002701  0.8885351383656616 -0.0002859028219223
  0.8000616875929693  0.2223691086513737  0.3338549169660067
  0.8001675384148962  0.2219697356980651  0.6672338527095079
  0.8000734639062996  0.2219302971712889  0.0005424864438973
  0.8000275757873937  0.5555505512386080  0.3331450600805363
  0.7997581506312540  0.5551663364989724  0.6662023727296801
  0.8000024093210790  0.5552619551607629 -0.0002769915999630
  0.8000789858514978  0.8888926153883242  0.3333168305677014
  0.8001698653898691  0.8882723342436374  0.6668231364349734
  0.8000683620928648  0.8884644429560358  0.0000957453060039
  0.0999061612640739  0.2776867744884815  0.1672990819175001
  0.1000084078941926  0.2779494663968989  0.5005011578647848
  0.0998866152918901  0.2773572226546878  0.8339591058842555
  0.0997691183978983  0.6111308759192380  0.1661894335444171
  0.1009035738163089  0.6111566340126838  0.4992081222841968
  0.1001647091350915  0.6106491468713476  0.8325520670743605
  0.0998501422409340  0.9444555021393515  0.1667060542678213
  0.0988579067379576  0.9453707680702528  0.5002629725845426
  0.0998225815053198  0.9439231629007401  0.8335922312738067
  0.3000334222781290  0.2777371345888693  0.1674279523442363
  0.2990072332033461  0.2749793043786216  0.5010994094047682
  0.2996942945701612  0.2762311391799493  0.8351785901400125
  0.2984935956287165  0.6122141989507937  0.1629979331430154
  0.2983094290091202  0.6171771615377222  0.4973915533579921
  0.3004761403326994  0.6103247304822998  0.8321923050303290
  0.2999199101141961  0.9443146573640818  0.1665866062794006
  0.2996061030828226  0.9447765787141496  0.4999065304534793
  0.3000318801984537  0.9438990181716167  0.8333684207257483
  0.4999666187218751  0.2777371345888693  0.1674279523442363
  0.5009927787966520  0.2749793043786216  0.5010994094047682
  0.5003057474298395  0.2762311391799493  0.8351785901400125
  0.5015063863712862  0.6122141989507937  0.1629979331430154
  0.5016905829908780  0.6171771615377222  0.4973915533579921
  0.4995238716672988  0.6103247304822998  0.8321923050303290
  0.5000801018858019  0.9443146573640818  0.1665866062794006
  0.5003939389171708  0.9447765787141496  0.4999065304534793
  0.4999681618015466  0.9438990181716167  0.8333684207257483
  0.7000938207359215  0.2776867744884815  0.1672990819175001
  0.6999915521058083  0.2779494663968989  0.5005011578647848
  0.7001133817081105  0.2773572226546878  0.8339591058842555
  0.7002308556020965  0.6111308759192380  0.1661894335444171
  0.6990963941837000  0.6111566340126838  0.4992081222841968
  0.6998352728649039  0.6106491468713476  0.8325520670743605
  0.7001498327590718  0.9444555021393515  0.1667060542678213
  0.7011420832620459  0.9453707680702528  0.5002629725845426
  0.7001773784946811  0.9439231629007401  0.8335922312738067
  0.8999999759999966  0.2777690831544309  0.1671159221962932
  0.8999999759999966  0.2782604268905900  0.5004652721103388
  0.8999999759999966  0.2775365022223215  0.8338213375511223
  0.8999999759999966  0.6109713015371507  0.1664915924369978
  0.8999999759999966  0.6109233759173325  0.4997008146822183
  0.8999999759999966  0.6106589937468092  0.8329538038140031
  0.8999999759999966  0.9443266618433281  0.1668936291605703
  0.8999999759999966  0.9445175014409894  0.5001875631062739
  0.8999999759999966  0.9439822908140538  0.8335754618384896
  0.9999129371413560  0.1110850638368029  0.1671298387451534
 -0.0003403982452644  0.1116587970817896  0.5004878081631557
  0.9998969427159120  0.1107569985841058  0.8338778484890620
  0.0000265020611964  0.4444003151992696  0.1668324938382138
  0.0003235613172161  0.4444951018031683  0.5000249621831198
 -0.0000754001197438  0.4441472798082998  0.8333703539635336
  0.0000112337717591  0.7776611318808794  0.1664255178875979
  0.9995533988171428  0.7775877715939205  0.4997873694226318
 -0.0000519314188701  0.7772429197044655  0.8332431356139333
  0.1999854112249635  0.1109345899224087  0.1671576692440674
  0.1993589902130175  0.1104498002468354  0.5004331149176651
  0.1998065777214488  0.1102906648412936  0.8340560174921016
  0.2000671486324069  0.4443504907164715  0.1666198492352635
  0.2014305722705937  0.4442782795825664  0.5006143860218979
  0.1994303840179739  0.4440144373713834  0.8340387243728721
  0.1998598859725305  0.7780393028135183  0.1661486987707304
  0.1973606404068871  0.7809851744077430  0.5004306113954046
  0.1999944639726169  0.7772202639844011  0.8323595503008466
  0.4000000059999991  0.1108613511015796  0.1672843083790338
  0.4000000059999991  0.1103085381609579  0.5005627912115348
  0.4000000059999991  0.1103186856242001  0.8339313312759372
  0.4000000059999991  0.4447701271346686  0.1668468997581644
  0.4000000059999991  0.4322318416775734  0.5097772981745079
  0.4000000059999991  0.4433246406988705  0.8327965250528022
  0.4000000059999991  0.7777637097232333  0.1660808945733346
  0.4000000059999991  0.7791930680790338  0.4984192144425302
  0.4000000059999991  0.7772944491056799  0.8318392568884658
  0.6000146307750368  0.1109345899224087  0.1671576692440674
  0.6006410517869827  0.1104498002468354  0.5004331149176651
  0.6001934332785523  0.1102906648412936  0.8340560174921016
  0.5999328633675913  0.4443504907164715  0.1666198492352635
  0.5985694397294111  0.4442782795825664  0.5006143860218979
  0.6005696129820337  0.4440144373713834  0.8340387243728721
  0.6001401560274700  0.7780393028135183  0.1661486987707304
  0.6026393565931062  0.7809851744077430  0.5004306113954046
  0.6000055930273814  0.7772202639844011  0.8323595503008466
  0.8000870748586493  0.1110850638368029  0.1671298387451534
  0.8003404102452624  0.1116587970817896  0.5004878081631557
  0.8001030692840861  0.1107569985841058  0.8338778484890620
  0.7999735089387982  0.4444003151992696  0.1668324938382138
  0.7996764506827819  0.4444951018031683  0.5000249621831198
  0.8000754121197419  0.4441472798082998  0.8333703539635336
  0.7999887782282389  0.7776611318808794  0.1664255178875979
  0.8004466131828625  0.7775877715939205  0.4997873694226318
  0.8000519434188685  0.7772429197044655  0.8332431356139333
  0.0998950540957685  0.0556096297777456  0.1260196740280977
  0.0991115396511628  0.0560546250165244  0.4591647304919836
  0.0997610862425586  0.0550402897838641  0.7928444127729704
  0.1000056696115311  0.3886984954169422  0.1260822455983296
  0.1007245702422454  0.3893035832214007  0.4594491508621327
  0.0997577744164740  0.3883928382425019  0.7925387775062884
  0.0999868500245358  0.7221336457274821  0.1250657514236487
  0.0995214377829788  0.7223672037249980  0.4586327374721004
  0.0998234928171728  0.7216959320498695  0.7918599947196844
  0.2999954206802276  0.0555124330073929  0.1259931853306837
  0.2996850359940467  0.0558036942971517  0.4592504252184970
  0.2999013915140923  0.0550539233701389  0.7927273343515653
  0.3002805289182539  0.3889125996621435  0.1262101784732430
  0.2995269984663396  0.3857443110001911  0.4602074668506936
  0.2987733044466551  0.3871973908071007  0.7955133668057882
  0.2998617052918394  0.7232579697172357  0.1236662142934163
  0.2961785081606337  0.7288185587907466  0.4589579998183571
  0.2999693875486390  0.7214355383780727  0.7909677487344275
  0.5000045913197705  0.0555124330073929  0.1259931853306837
  0.5003149760059586  0.0558036942971517  0.4592504252184970
  0.5000986204859127  0.0550539233701389  0.7927273343515653
  0.4997194830817445  0.3889125996621435  0.1262101784732430
  0.5004729835336561  0.3857443110001911  0.4602074668506936
  0.5012267075533428  0.3871973908071007  0.7955133668057882
  0.5001383367081609  0.7232579697172357  0.1236662142934163
  0.5038215038393645  0.7288185587907466  0.4589579998183571
  0.5000306244513592  0.7214355383780727  0.7909677487344275
  0.7001049649042267  0.0556096297777456  0.1260196740280977
  0.7008884573488375  0.0560546250165244  0.4591647304919836
  0.7002389257574400  0.0550402897838641  0.7928444127729704
  0.6999943273884695  0.3886984954169422  0.1260822455983296
  0.6992754117577505  0.3893035832214007  0.4594491508621327
  0.7002422005835242  0.3883928382425019  0.7925387775062884
  0.7000131319754669  0.7221336457274821  0.1250657514236487
  0.7004785672170226  0.7223672037249980  0.4586327374721004
  0.7001764661828246  0.7216959320498695  0.7918599947196844
  0.8999999759999966  0.0554484193301093  0.1260351546406926
  0.8999999759999966  0.0557391308126768  0.4593822026007198
  0.8999999759999966  0.0551246675125361  0.7927461490404961
  0.8999999759999966  0.3888282760754179  0.1259200069154683
  0.8999999759999966  0.3893012491129986  0.4591967387906444
  0.8999999759999966  0.3885678356523597  0.7925041546555482
  0.8999999759999966  0.7220280605559963  0.1254613840847890
  0.8999999759999966  0.7218887890229272  0.4585992562159673
  0.8999999759999966  0.7217349973216063  0.7921176234641956
 -0.0000444644157264  0.2221794073179388  0.1261624710828643
  0.9998341644942115  0.2227589478115419  0.4594801172697920
 -0.0000940795304777  0.2218663876737846  0.7928648506545833
 -0.0001076594981900  0.5553935333117064  0.1254018025079392
  0.0005669055521982  0.5555804433823316  0.4588515083635142
  0.0000559338003229  0.5551306488183460  0.7918621294929468
 -0.0000769861375838  0.8887768761409574  0.1256824953838097
  0.9996782729729805  0.8887673532898017  0.4590003307028159
  0.9999073939478962  0.8883397190247351  0.7924465414008549
  0.1999690988940799  0.2221645329857090  0.1265503913825410
  0.1990602425822117  0.2212238617281865  0.4592829011351058
  0.1996552900622803  0.2213194264466189  0.7932122354331845
  0.1991542739702266  0.5550867423868912  0.1243108865854389
  0.2025003098303018  0.5555316483907305  0.4576789098757310
  0.2002785601077149  0.5549233178032414  0.7914215526898406
  0.1998023797074023  0.8890919524220661  0.1252997260608430
  0.1986219281884288  0.8912420377567686  0.4587740575803221
  0.1999119522149887  0.8886024579021491  0.7924148887065962
  0.4000000059999991  0.2220425745412811  0.1267248034480102
  0.4000000059999991  0.2213077694840323  0.4598430174378529
  0.4000000059999991  0.2215297768177374  0.7934276978862874
  0.4000000059999991  0.5559660907686055  0.1252668895257758
  0.4000000059999991  0.5543751321728878  0.7906644826392166
  0.4000000059999991  0.8889425444511041  0.1253643455103285
  0.4000000059999991  0.8904818310015699  0.4585676540793244
  0.4000000059999991  0.8885679413263599  0.7917713541749224
  0.6000309131059182  0.2221645329857090  0.1265503913825410
  0.6009397844177840  0.2212238617281865  0.4592829011351058
  0.6003447369377224  0.2213194264466189  0.7932122354331845
  0.6008457230297737  0.5550867423868912  0.1243108865854389
  0.5974997471696964  0.5555316483907305  0.4576789098757310
  0.5997214518922831  0.5549233178032414  0.7914215526898406
  0.6001976622925986  0.8890919524220661  0.1252997260608430
  0.6013781288115697  0.8912420377567686  0.4587740575803221
  0.6000880897850124  0.8886024579021491  0.7924148887065962
  0.8000444764157248  0.2221794073179388  0.1261624710828643
  0.8001658475057867  0.2227589478115419  0.4594801172697920
  0.8000941185304818  0.2218663876737846  0.7928648506545833
  0.8001076714981883  0.5553935333117064  0.1254018025079392
  0.7994331344478025  0.5555804433823316  0.4588515083635142
  0.7999440601996740  0.5551306488183460  0.7918621294929468
  0.8000770571375830  0.8887768761409574  0.1256824953838097
  0.8003217650270198  0.8887673532898017  0.4590003307028159
  0.8000925970521038  0.8883397190247351  0.7924465414008549
  0.1000289387229319  0.2778445689802290  0.2929133238502176
  0.0999725051137588  0.2772711346019258  0.6261813405617805
  0.0999797372110137  0.2774060029855043  0.9595986087377889
  0.0996246795190090  0.6112034249112056  0.2919481795474357
  0.1006443470011826  0.6104381575687072  0.6249159566321203
  0.0998420292480270  0.6107892759968843  0.9581638354884305
  0.0996341247613644  0.9447897753608850  0.2922482087840829
  0.0995816615535179  0.9440054426103159  0.6259108208766917
  0.0998355704723413  0.9441322477127415  0.9591583096991331
  0.3002890358241142  0.2782077875716603  0.2931107362876766
  0.2993056845854208  0.2752061292409902  0.6267084088573913
  0.2999801457827263  0.2769485336507070  0.9605451403814552
  0.2969290668604228  0.6129523078906333  0.2875003758783508
  0.3013400016100310  0.6100051270697844  0.6226128498551405
  0.2999948594872874  0.6107483600925342  0.9580812324247761
  0.2998404147963161  0.9445319148509543  0.2921960114363810
  0.2997984643105946  0.9438957108041118  0.6255907291427985
  0.2999875006022962  0.9440887365903041  0.9589626235822879
  0.4997109761758838  0.2782077875716603  0.2931107362876766
  0.5006943274145844  0.2752061292409902  0.6267084088573913
  0.5000198662172790  0.2769485336507070  0.9605451403814552
  0.5030709751395782  0.6129523078906333  0.2875003758783508
  0.4986600103899743  0.6100051270697844  0.6226128498551405
  0.5000051525127106  0.6107483600925342  0.9580812324247761
  0.5001595672036797  0.9445319148509543  0.2921960114363810
  0.5002015476894034  0.9438957108041118  0.6255907291427985
  0.5000125113977018  0.9440887365903041  0.9589626235822879
  0.6999710512770645  0.2778445689802290  0.2929133238502176
  0.7000274548862420  0.2772711346019258  0.6261813405617805
  0.7000202297889845  0.2774060029855043  0.9595986087377889
  0.7003752874809890  0.6112034249112056  0.2919481795474357
  0.6993556129988113  0.6104381575687072  0.6249159566321203
  0.7001579447519751  0.6107892759968843  0.9581638354884305
  0.7003658572386383  0.9447897753608850  0.2922482087840829
  0.7004183134464812  0.9440054426103159  0.6259108208766917
  0.7001644115276685  0.9441322477127415  0.9591583096991331
  0.8999999759999966  0.2779189312546361  0.2927226998117722
  0.8999999759999966  0.2776526593569267  0.6260838922481217
  0.8999999759999966  0.2775404052940852  0.9594484654483439
  0.8999999759999966  0.6109951055744812  0.2921766974234771
  0.8999999759999966  0.6105984923243415  0.6253272870049442
  0.8999999759999966  0.6107100431294721  0.9586261693172555
  0.8999999759999966  0.9445908377231711  0.2924974543746173
  0.8999999759999966  0.9441133986838581  0.6258671412930878
  0.8999999759999966  0.9441209552391280  0.9591835402032741
  0.9998627094999872  0.1113666232488432  0.2927172997789440
  0.9998479151083667  0.1109314012304186  0.6261388209105057
  0.9999301521531462  0.1108443439091693  0.9594908327203501
  0.0001440164420479  0.4443692973737675  0.2925136173207037
  0.0000698537037789  0.4440257337998912  0.6256240509856740
 -0.0000196094060804  0.4440922410716995  0.9590463499434395
 -0.0001010658779011  0.7778266840180705  0.2920494900481260
 -0.0001158030300901  0.7772279477925504  0.6254451386149756
 -0.0000843615558047  0.7773997715939411  0.9588423482095157
  0.1999810254771933  0.1111786101685257  0.2927175140181622
  0.1995583618315777  0.1099168678398332  0.6260809018530205
  0.1999288755013101  0.1106344550004466  0.9596464401402468
  0.2003802080183915  0.4442154297769558  0.2924740105432316
  0.2006249451111432  0.4433394570228115  0.6262007830706362
  0.1997920451106566  0.4439349066539577  0.9594480167813282
  0.1995794941096675  0.7784567108161865  0.2915843967369675
  0.1995947508835251  0.7775878450775352  0.6259724779622102
  0.1997888832676720  0.7775705291612285  0.9579826677131458
  0.4000000059999991  0.1110549089394880  0.2928526912993489
  0.4000000059999991  0.1099849830709403  0.6262211914563320
  0.4000000059999991  0.1105691576564689  0.9595534266863738
  0.4000000059999991  0.4466685860868104  0.2944302699132974
  0.4000000059999991  0.4360927764862130  0.6357836733277727
  0.4000000059999991  0.4439292866786693  0.9589006974910153
  0.4000000059999991  0.7778385386418695  0.2917789197383927
  0.4000000059999991  0.7774939006664749  0.6245094377259587
  0.4000000059999991  0.7777324890959221  0.9574064062118203
  0.6000189865228118  0.1111786101685257  0.2927175140181622
  0.6004416801684296  0.1099168678398332  0.6260809018530205
  0.6000711664986904  0.1106344550004466  0.9596464401402468
  0.5996198339816090  0.4442154297769558  0.2924740105432316
  0.5993751118888622  0.4433394570228115  0.6262007830706362
  0.6002079968893440  0.4439349066539577  0.9594480167813282
  0.6004205178903310  0.7784567108161865  0.2915843967369675
  0.6004052461164751  0.7775878450775352  0.6259724779622102
  0.6002111437323240  0.7775705291612285  0.9579826677131458
  0.8001373025000180  0.1113666232488432  0.2927172997789440
  0.8001521258916303  0.1109314012304186  0.6261388209105057
  0.8000698498468511  0.1108443439091693  0.9594908327203501
  0.7998559955579508  0.4443692973737675  0.2925136173207037
  0.7999301792962173  0.4440257337998912  0.6256240509856740
  0.8000196204060820  0.4440922410716995  0.9590463499434395
  0.8001010698779053  0.7778266840180705  0.2920494900481260
  0.8001157870300928  0.7772279477925504  0.6254451386149756
  0.8000843825558073  0.7773997715939411  0.9588423482095157
  0.4000000059999991  0.6080339102475935  0.4310487040712282
  0.4000000059999991  0.5240728540854884  0.5091971532292954
 
  0.00000000E+00  0.00000000E+00  0.00000000E+00
  0.00000000E+00  0.00000000E+00  0.00000000E+00
  0.00000000E+00  0.00000000E+00  0.00000000E+00
  0.00000000E+00  0.00000000E+00  0.00000000E+00
  0.00000000E+00  0.00000000E+00  0.00000000E+00
  0.00000000E+00  0.00000000E+00  0.00000000E+00
  0.00000000E+00  0.00000000E+00  0.00000000E+00
  0.00000000E+00  0.00000000E+00  0.00000000E+00
  0.00000000E+00  0.00000000E+00  0.00000000E+00
  0.00000000E+00  0.00000000E+00  0.00000000E+00
  0.00000000E+00  0.00000000E+00  0.00000000E+00
  0.00000000E+00  0.00000000E+00  0.00000000E+00
  0.00000000E+00  0.00000000E+00  0.00000000E+00
  0.00000000E+00  0.00000000E+00  0.00000000E+00
  0.00000000E+00  0.00000000E+00  0.00000000E+00
  0.00000000E+00  0.00000000E+00  0.00000000E+00
  0.00000000E+00  0.00000000E+00  0.00000000E+00
  0.00000000E+00  0.00000000E+00  0.00000000E+00
  0.00000000E+00  0.00000000E+00  0.00000000E+00
  0.00000000E+00  0.00000000E+00  0.00000000E+00
  0.00000000E+00  0.00000000E+00  0.00000000E+00
  0.00000000E+00  0.00000000E+00  0.00000000E+00
  0.00000000E+00  0.00000000E+00  0.00000000E+00
  0.00000000E+00  0.00000000E+00  0.00000000E+00
  0.00000000E+00  0.00000000E+00  0.00000000E+00
  0.00000000E+00  0.00000000E+00  0.00000000E+00
  0.00000000E+00  0.00000000E+00  0.00000000E+00
  0.00000000E+00  0.00000000E+00  0.00000000E+00
  0.00000000E+00  0.00000000E+00  0.00000000E+00
  0.00000000E+00  0.00000000E+00  0.00000000E+00
  0.00000000E+00  0.00000000E+00  0.00000000E+00
  0.00000000E+00  0.00000000E+00  0.00000000E+00
  0.00000000E+00  0.00000000E+00  0.00000000E+00
  0.00000000E+00  0.00000000E+00  0.00000000E+00
  0.00000000E+00  0.00000000E+00  0.00000000E+00
  0.00000000E+00  0.00000000E+00  0.00000000E+00
  0.00000000E+00  0.00000000E+00  0.00000000E+00
  0.00000000E+00  0.00000000E+00  0.00000000E+00
  0.00000000E+00  0.00000000E+00  0.00000000E+00
  0.00000000E+00  0.00000000E+00  0.00000000E+00
  0.00000000E+00  0.00000000E+00  0.00000000E+00
  0.00000000E+00  0.00000000E+00  0.00000000E+00
  0.00000000E+00  0.00000000E+00  0.00000000E+00
  0.00000000E+00  0.00000000E+00  0.00000000E+00
  0.00000000E+00  0.00000000E+00  0.00000000E+00
  0.00000000E+00  0.00000000E+00  0.00000000E+00
  0.00000000E+00  0.00000000E+00  0.00000000E+00
  0.00000000E+00  0.00000000E+00  0.00000000E+00
  0.00000000E+00  0.00000000E+00  0.00000000E+00
  0.00000000E+00  0.00000000E+00  0.00000000E+00
  0.00000000E+00  0.00000000E+00  0.00000000E+00
  0.00000000E+00  0.00000000E+00  0.00000000E+00
  0.00000000E+00  0.00000000E+00  0.00000000E+00
  0.00000000E+00  0.00000000E+00  0.00000000E+00
  0.00000000E+00  0.00000000E+00  0.00000000E+00
  0.00000000E+00  0.00000000E+00  0.00000000E+00
  0.00000000E+00  0.00000000E+00  0.00000000E+00
  0.00000000E+00  0.00000000E+00  0.00000000E+00
  0.00000000E+00  0.00000000E+00  0.00000000E+00
  0.00000000E+00  0.00000000E+00  0.00000000E+00
  0.00000000E+00  0.00000000E+00  0.00000000E+00
  0.00000000E+00  0.00000000E+00  0.00000000E+00
  0.00000000E+00  0.00000000E+00  0.00000000E+00
  0.00000000E+00  0.00000000E+00  0.00000000E+00
  0.00000000E+00  0.00000000E+00  0.00000000E+00
  0.00000000E+00  0.00000000E+00  0.00000000E+00
  0.00000000E+00  0.00000000E+00  0.00000000E+00
  0.00000000E+00  0.00000000E+00  0.00000000E+00
  0.00000000E+00  0.00000000E+00  0.00000000E+00
  0.00000000E+00  0.00000000E+00  0.00000000E+00
  0.00000000E+00  0.00000000E+00  0.00000000E+00
  0.00000000E+00  0.00000000E+00  0.00000000E+00
  0.00000000E+00  0.00000000E+00  0.00000000E+00
  0.00000000E+00  0.00000000E+00  0.00000000E+00
  0.00000000E+00  0.00000000E+00  0.00000000E+00
  0.00000000E+00  0.00000000E+00  0.00000000E+00
  0.00000000E+00  0.00000000E+00  0.00000000E+00
  0.00000000E+00  0.00000000E+00  0.00000000E+00
  0.00000000E+00  0.00000000E+00  0.00000000E+00
  0.00000000E+00  0.00000000E+00  0.00000000E+00
  0.00000000E+00  0.00000000E+00  0.00000000E+00
  0.00000000E+00  0.00000000E+00  0.00000000E+00
  0.00000000E+00  0.00000000E+00  0.00000000E+00
  0.00000000E+00  0.00000000E+00  0.00000000E+00
  0.00000000E+00  0.00000000E+00  0.00000000E+00
  0.00000000E+00  0.00000000E+00  0.00000000E+00
  0.00000000E+00  0.00000000E+00  0.00000000E+00
  0.00000000E+00  0.00000000E+00  0.00000000E+00
  0.00000000E+00  0.00000000E+00  0.00000000E+00
  0.00000000E+00  0.00000000E+00  0.00000000E+00
  0.00000000E+00  0.00000000E+00  0.00000000E+00
  0.00000000E+00  0.00000000E+00  0.00000000E+00
  0.00000000E+00  0.00000000E+00  0.00000000E+00
  0.00000000E+00  0.00000000E+00  0.00000000E+00
  0.00000000E+00  0.00000000E+00  0.00000000E+00
  0.00000000E+00  0.00000000E+00  0.00000000E+00
  0.00000000E+00  0.00000000E+00  0.00000000E+00
  0.00000000E+00  0.00000000E+00  0.00000000E+00
  0.00000000E+00  0.00000000E+00  0.00000000E+00
  0.00000000E+00  0.00000000E+00  0.00000000E+00
  0.00000000E+00  0.00000000E+00  0.00000000E+00
  0.00000000E+00  0.00000000E+00  0.00000000E+00
  0.00000000E+00  0.00000000E+00  0.00000000E+00
  0.00000000E+00  0.00000000E+00  0.00000000E+00
  0.00000000E+00  0.00000000E+00  0.00000000E+00
  0.00000000E+00  0.00000000E+00  0.00000000E+00
  0.00000000E+00  0.00000000E+00  0.00000000E+00
  0.00000000E+00  0.00000000E+00  0.00000000E+00
  0.00000000E+00  0.00000000E+00  0.00000000E+00
  0.00000000E+00  0.00000000E+00  0.00000000E+00
  0.00000000E+00  0.00000000E+00  0.00000000E+00
  0.00000000E+00  0.00000000E+00  0.00000000E+00
  0.00000000E+00  0.00000000E+00  0.00000000E+00
  0.00000000E+00  0.00000000E+00  0.00000000E+00
  0.00000000E+00  0.00000000E+00  0.00000000E+00
  0.00000000E+00  0.00000000E+00  0.00000000E+00
  0.00000000E+00  0.00000000E+00  0.00000000E+00
  0.00000000E+00  0.00000000E+00  0.00000000E+00
  0.00000000E+00  0.00000000E+00  0.00000000E+00
  0.00000000E+00  0.00000000E+00  0.00000000E+00
  0.00000000E+00  0.00000000E+00  0.00000000E+00
  0.00000000E+00  0.00000000E+00  0.00000000E+00
  0.00000000E+00  0.00000000E+00  0.00000000E+00
  0.00000000E+00  0.00000000E+00  0.00000000E+00
  0.00000000E+00  0.00000000E+00  0.00000000E+00
  0.00000000E+00  0.00000000E+00  0.00000000E+00
  0.00000000E+00  0.00000000E+00  0.00000000E+00
  0.00000000E+00  0.00000000E+00  0.00000000E+00
  0.00000000E+00  0.00000000E+00  0.00000000E+00
  0.00000000E+00  0.00000000E+00  0.00000000E+00
  0.00000000E+00  0.00000000E+00  0.00000000E+00
  0.00000000E+00  0.00000000E+00  0.00000000E+00
  0.00000000E+00  0.00000000E+00  0.00000000E+00
  0.00000000E+00  0.00000000E+00  0.00000000E+00
  0.00000000E+00  0.00000000E+00  0.00000000E+00
  0.00000000E+00  0.00000000E+00  0.00000000E+00
  0.00000000E+00  0.00000000E+00  0.00000000E+00
  0.00000000E+00  0.00000000E+00  0.00000000E+00
  0.00000000E+00  0.00000000E+00  0.00000000E+00
  0.00000000E+00  0.00000000E+00  0.00000000E+00
  0.00000000E+00  0.00000000E+00  0.00000000E+00
  0.00000000E+00  0.00000000E+00  0.00000000E+00
  0.00000000E+00  0.00000000E+00  0.00000000E+00
  0.00000000E+00  0.00000000E+00  0.00000000E+00
  0.00000000E+00  0.00000000E+00  0.00000000E+00
  0.00000000E+00  0.00000000E+00  0.00000000E+00
  0.00000000E+00  0.00000000E+00  0.00000000E+00
  0.00000000E+00  0.00000000E+00  0.00000000E+00
  0.00000000E+00  0.00000000E+00  0.00000000E+00
  0.00000000E+00  0.00000000E+00  0.00000000E+00
  0.00000000E+00  0.00000000E+00  0.00000000E+00
  0.00000000E+00  0.00000000E+00  0.00000000E+00
  0.00000000E+00  0.00000000E+00  0.00000000E+00
  0.00000000E+00  0.00000000E+00  0.00000000E+00
  0.00000000E+00  0.00000000E+00  0.00000000E+00
  0.00000000E+00  0.00000000E+00  0.00000000E+00