GaN_ONH                                 
    1.000000000000000     
    15.8909244537000003    0.0000000000000000    0.0000000000000000
     0.0000000000000000   16.5143318175999987    0.0000000000000000
     0.0000000000000000    0.0000000000000000   15.4982528686999999
   Ga   N    O    H 
   180   179     1     1
Direct
  0.0995211191029694  0.0554244900475018  0.3333208683762296
  0.0996263421771643  0.0556205679291569  0.6672309179505278
  0.0997898860756339  0.0549130309856306  0.0001112488645323
  0.0997219576279418  0.3888103420238067  0.3333789401148847
  0.0993535557393407  0.3889491760316144  0.6671061027519705
  0.0998821088280201  0.3882965892184040  0.0000136020980427
  0.0997064432494646  0.7225593600402038  0.3331161033888988
  0.0997170601245117  0.7225244823266842  0.6670102087083950
  0.0998161016360419  0.7218308797970973 -0.0001042144437264
  0.2996555969696925  0.0554336173718345  0.3329435315259473
  0.2999362264917628  0.0557194143371782  0.6667464622396173
  0.2998418277431445  0.0552104035445574  0.9998009931928398
  0.2989755939934827  0.3872754319210611  0.3318143508750419
  0.2978162556515844  0.3878416268071028  0.6692407148652378
  0.2999588404087311  0.3885272889528911  0.0001478546948458
  0.2996339653122153  0.7240060742700563  0.3323389576205811
  0.3000941235374541  0.7238986415252702  0.6679726188154067
  0.2999002185958825  0.7218565261034379  0.0000089753894202
  0.5003443850303031  0.0554336173718345  0.3329435315259473
  0.5000637555082329  0.0557194143371782  0.6667464622396173
  0.5001581542568516  0.0552104035445574  0.9998009931928398
  0.5010244480065176  0.3872754319210611  0.3318143508750419
  0.5021837273484151  0.3878416268071028  0.6692407148652378
  0.5000412015912623  0.3885272889528911  0.0001478546948458
  0.5003660466877831  0.7240060742700563  0.3323389576205811
  0.4999058884625441  0.7238986415252702  0.6679726188154067
  0.5000997934041227  0.7218565261034379  0.0000089753894202
  0.7004788928970286  0.0554244900475018  0.3333208683762296
  0.7003736328228342  0.0556205679291569  0.6672309179505278
  0.7002101109243668  0.0549130309856306  0.0001112488645323
  0.7002780323720547  0.3888103420238067  0.3333789401148847
  0.7006464482606636  0.3889491760316144  0.6671061027519705
  0.7001178811719762  0.3882965892184040  0.0000136020980427
  0.7002935397505349  0.7225593600402038  0.3331161033888988
  0.7002829368754887  0.7225244823266842  0.6670102087083950
  0.7001838813639572  0.7218308797970973 -0.0001042144437264
  0.8999999759999966  0.0556424731681253  0.3333240965851865
  0.8999999759999966  0.0556029712857520  0.6669611731239574
  0.8999999759999966  0.0550813604072058  0.0000734165582316
  0.8999999759999966  0.3889953159861685  0.3333630364416579
  0.8999999759999966  0.3889159203267361  0.6668722687735797
  0.8999999759999966  0.3881838878091320  0.0001712539137862
  0.8999999759999966  0.7220736820912622  0.3331590086955317
  0.8999999759999966  0.7221795677322296  0.6667724611942126
  0.8999999759999966  0.7216143642781757  0.0000595590144907
  0.9998303161221788  0.2222614377873342  0.3334784118482176
 -0.0000157699116191  0.2222705556383718  0.6671381011106529
 -0.0001578051804530  0.2214669992198748  0.0002676621467251
  0.9998675005815084  0.5555620591352047  0.3328691947931900
 -0.0000923512333473  0.5555597297322324  0.6667999965392478
 -0.0000298810407957  0.5549426211043401 -0.0002080327266346
  0.9998828275993257  0.8889044654215191  0.3332766212065075
  0.9999008310044192  0.8889526217173396  0.6670097667481422
  0.9998508721894708  0.8883795418529404  0.0000942973421824
  0.1992358545132621  0.2213533271210028  0.3321911665833565
  0.1992450870101552  0.2217496686664212  0.6672154635568169
  0.1997252351361857  0.2216928517665608 -0.0001033627734502
  0.1993664105706915  0.5553853653695555  0.3324525245494602
  0.1992255557693656  0.5555957520634824  0.6676175363290677
  0.1999930232483260  0.5552220466447295  0.0001022122576676
  0.1995692896918971  0.8895169964737326  0.3328680421851051
  0.1997926394407182  0.8894324731605215  0.6672252205433292
  0.1999192152132402  0.8886335938622989 -0.0001465751507818
  0.4000000059999991  0.2215184778501975  0.3326218202006729
  0.4000000059999991  0.2220095463703647  0.6669618529203710
  0.4000000059999991  0.2217258827611030  0.9997135432587563
  0.4000000059999991  0.5562266668155464  0.3245062271227520
  0.4000000059999991  0.5554218035015616  0.6641249107438103
  0.4000000059999991  0.5550926054491315  0.0005933843881420
  0.4000000059999991  0.8897890667357016  0.3330090034870003
  0.4000000059999991  0.8898462357641976  0.6671547119207112
  0.4000000059999991  0.8889074060888451 -0.0001725244495998
  0.6007641574867365  0.2213533271210028  0.3321911665833565
  0.6007549399898404  0.2217496686664212  0.6672154635568169
  0.6002747768638126  0.2216928517665608 -0.0001033627734502
  0.6006336314293026  0.5553853653695555  0.3324525245494602
  0.6007744712306372  0.5555957520634824  0.6676175363290677
  0.6000070327516689  0.5552220466447295  0.0001022122576676
  0.6004307523081037  0.8895169964737326  0.3328680421851051
  0.6002073575592820  0.8894324731605215  0.6672252205433292
  0.6000808117867626  0.8886335938622989 -0.0001465751507818
  0.8001696958778194  0.2222614377873342  0.3334784118482176
  0.8000157819116174  0.2222705556383718  0.6671381011106529
  0.8001578171804512  0.2214669992198748  0.0002676621467251
  0.8001325114184897  0.5555620591352047  0.3328691947931900
  0.8000923632333453  0.5555597297322324  0.6667999965392478
  0.8000298930407939  0.5549426211043401 -0.0002080327266346
  0.8001171844006725  0.8889044654215191  0.3332766212065075
  0.8000991809955790  0.8889526217173396  0.6670097667481422
  0.8001491388105237  0.8883795418529404  0.0000942973421824
  0.0997473270834407  0.2775225322406555  0.1665972408696378
  0.0989639265300304  0.2779645780198686  0.5002279458075851
  0.0997577373961594  0.2775369345362069  0.8335929585359209
  0.0996630138322603  0.6111213657304402  0.1662820438216966
  0.0980486470282466  0.6115239869017545  0.4998770992836928
  0.0997819440896761  0.6109817564872650  0.8334651828080183
  0.0997525127920358  0.9442939081378892  0.1665824348587780
  0.0988480565948949  0.9450132052309596  0.5004384174853217
  0.0998693067650203  0.9441612486764399  0.8336520682728650
  0.2998912979942693  0.2768792760259631  0.1658290350358921
  0.2962837438664851  0.2712313778333988  0.5000286869703422
  0.2999041885704026  0.2773138449127069  0.8338062081274205
  0.2993996861193292  0.6113389206766239  0.1663342129479635
  0.2886335951341106  0.6210176393672240  0.5028751216565500
  0.3003634657114463  0.6107309389429091  0.8334325375106763
  0.2997566028100299  0.9443120634247464  0.1663405520397163
  0.2997224724822545  0.9454862273703744  0.5001614065652628
  0.2998562940066979  0.9444365287874449  0.8335035152678717
  0.5001087430057344  0.2768792760259631  0.1658290350358921
  0.5037162681335126  0.2712313778333988  0.5000286869703422
  0.5000958534295981  0.2773138449127069  0.8338062081274205
  0.5006002958806741  0.6113389206766239  0.1663342129479635
  0.5113664168658878  0.6210176393672240  0.5028751216565500
  0.4996365462885514  0.6107309389429091  0.8334325375106763
  0.5002434091899685  0.9443120634247464  0.1663405520397163
  0.5002775695177392  0.9454862273703744  0.5001614065652628
  0.5001437479933027  0.9444365287874449  0.8335035152678717
  0.7002526549165550  0.2775225322406555  0.1665972408696378
  0.7010360334699700  0.2779645780198686  0.5002279458075851
  0.7002422596038411  0.2775369345362069  0.8335929585359209
  0.7003369601677343  0.6111213657304402  0.1662820438216966
  0.7019513209717553  0.6115239869017545  0.4998770992836928
  0.7002180379103201  0.6109817564872650  0.8334651828080183
  0.7002474622079699  0.9442939081378892  0.1665824348587780
  0.7011519334051087  0.9450132052309596  0.5004384174853217
  0.7001306532349807  0.9441612486764399  0.8336520682728650
  0.8999999759999966  0.2776526636157263  0.1669162595746883
  0.8999999759999966  0.2783843996276854  0.5004159289673863
  0.8999999759999966  0.2774285420112333  0.8339107879484606
  0.8999999759999966  0.6109633920377608  0.1664802772818035
  0.8999999759999966  0.6114100555886520  0.5000938936219280
  0.8999999759999966  0.6109881711906994  0.8334109874625789
  0.8999999759999966  0.9442005208214130  0.1667165393238030
  0.8999999759999966  0.9447311225794811  0.5000890192081875
  0.8999999759999966  0.9442471651141118  0.8335727158429452
  0.9999269217429585  0.1109414566297724  0.1667112038290778
  0.9996860857330144  0.1115709539440356  0.5001702629782215
 -0.0001073292174984  0.1107907817508861  0.8335902226432687
 -0.0000211930279588  0.4443215623630304  0.1666367152603948
  0.9997486324192535  0.4445511819605948  0.5001042603492527
  0.9998045031223842  0.4440985126897591  0.8334155578481686
  0.9998224437664258  0.7776707638183590  0.1666304151936946
  0.9995307775111785  0.7779394480294921  0.5000587281594245
  0.9997265374347508  0.7775198926029581  0.8334457450762290
  0.1997498262691607  0.1105465596333482  0.1663673097345537
  0.1986539838496215  0.1095024468227144  0.5001842910263123
  0.1998412018850391  0.1107494032505967  0.8335211605374546
  0.1997780062737771  0.4441848394165530  0.1661485329557571
  0.1996903355940825  0.4445265123262577  0.5010231576968839
  0.1995997123769478  0.4444599926567454  0.8341304698437843
  0.1995455261928382  0.7780500052167421  0.1661050973119435
  0.1980172349119619  0.7815345429920898  0.5002934003994346
  0.1997912978356834  0.7778917351216643  0.8337885704761054
  0.4000000059999991  0.1105608194127062  0.1662854954509345
  0.4000000059999991  0.1103262077080429  0.4997988489279783
  0.4000000059999991  0.1109447698764159  0.8331383453645784
  0.4000000059999991  0.4437086491715825  0.1664787895163231
  0.4000000059999991  0.4123991722422852  0.5083587994771415
  0.4000000059999991  0.4445987377743938  0.8336760962444423
  0.4000000059999991  0.7781000830419899  0.1658921603359374
  0.4000000059999991  0.7806850630210557  0.5004731439620020
  0.4000000059999991  0.7781615506763481  0.8339249182911522
  0.6002502157308398  0.1105465596333482  0.1663673097345537
  0.6013460581503787  0.1095024468227144  0.5001842910263123
  0.6001588091149623  0.1107494032505967  0.8335211605374546
  0.6002220057262211  0.4441848394165530  0.1661485329557571
  0.6003096764059228  0.4445265123262577  0.5010231576968839
  0.6004002846230528  0.4444599926567454  0.8341304698437843
  0.6004545158071626  0.7780500052167421  0.1661050973119435
  0.6019827620880380  0.7815345429920898  0.5002934003994346
  0.6002087591643150  0.7778917351216643  0.8337885704761054
  0.8000730902570468  0.1109414566297724  0.1667112038290778
  0.8003139262669837  0.1115709539440356  0.5001702629782215
  0.8001073412174965  0.1107907817508861  0.8335902226432687
  0.8000212040279534  0.4443215623630304  0.1666367152603948
  0.8002513795807447  0.4445511819605948  0.5001042603492527
  0.8001955088776139  0.4440985126897591  0.8334155578481686
  0.8001775682335723  0.7776707638183590  0.1666304151936946
  0.8004692344888268  0.7779394480294921  0.5000587281594245
  0.8002734745652473  0.7775198926029581  0.8334457450762290
  0.0997768683031101  0.0552106258363998  0.1255985379364292
  0.0989079538201151  0.0553300789727569  0.4588407434383675
  0.0999047092304004  0.0552473829989747  0.7926807165945027
  0.1000520240798816  0.3887282782387106  0.1257518179072490
  0.1002146066047091  0.3894108504668165  0.4591355735223983
  0.1000800061276330  0.3888088846661815  0.7925244567385116
  0.0998771643107612  0.7220638821508955  0.1254943744680262
  0.1001891994475501  0.7226183856258916  0.4590213786404216
  0.1000223080259764  0.7220717717231069  0.7924901422581911
  0.2998411758938270  0.0552871400676252  0.1254327352595607
  0.2996413645917930  0.0561057055145946  0.4587375795260999
  0.2999249749357997  0.0554756068479490  0.7922244470442816
  0.3001452998036382  0.3886229064697467  0.1261378832925915
  0.2966035665270546  0.3840415435878582  0.4579890308489662
  0.2997662698605810  0.3887617782445850  0.7935908868028422
  0.2998490523835967  0.7220499175688637  0.1259262860882547
  0.2989604156627594  0.7270559111648837  0.4582898672603761
  0.3000803606034221  0.7221138064532241  0.7928517146755435
  0.5001588361061715  0.0552871400676252  0.1254327352595607
  0.5003586474082123  0.0561057055145946  0.4587375795260999
  0.5000750370642058  0.0554756068479490  0.7922244470442816
  0.4998547121963598  0.3886229064697467  0.1261378832925915
  0.5033964154729413  0.3840415435878582  0.4579890308489662
  0.5002337421394172  0.3887617782445850  0.7935908868028422
  0.5001509896164036  0.7220499175688637  0.1259262860882547
  0.5010395963372390  0.7270559111648837  0.4582898672603761
  0.4999196513965762  0.7221138064532241  0.7928517146755435
  0.7002231506968852  0.0552106258363998  0.1255985379364292
  0.7010920431798856  0.0553300789727569  0.4588407434383675
  0.7000953027695972  0.0552473829989747  0.7926807165945027
  0.6999479729201190  0.3887282782387106  0.1257518179072490
  0.6997853753952863  0.3894108504668165  0.4591355735223983
  0.6999199688723652  0.3888088846661815  0.7925244567385116
  0.7001228176892413  0.7220638821508955  0.1254943744680262
  0.6998108055524507  0.7226183856258916  0.4590213786404216
  0.6999776509740214  0.7220717717231069  0.7924901422581911
  0.8999999759999966  0.0553322256108537  0.1257284133475026
  0.8999999759999966  0.0557705265884646  0.4589899816461175
  0.8999999759999966  0.0552892734328192  0.7924986363545196
  0.8999999759999966  0.3886810009421493  0.1257529351986194
  0.8999999759999966  0.3892324080182367  0.4589528461002641
  0.8999999759999966  0.3883672380717470  0.7923700401912653
  0.8999999759999966  0.7219311192181701  0.1256585373329601
  0.8999999759999966  0.7220432828868354  0.4587639480913694
  0.8999999759999966  0.7218753975369763  0.7922247515412074
  0.9998147269462256  0.2220336381436852  0.1258229324231113
 -0.0005370414674830  0.2226998068627878  0.4591358335676791
 -0.0000999553354204  0.2219998106638229  0.7926355755270356
 -0.0000567777406748  0.5553634225965284  0.1255335282516453
 -0.0003773317549129  0.5555157034517316  0.4586209856930097
 -0.0000375248513956  0.5552773757001378  0.7922312161131526
  0.0000105754645068  0.8885956757755230  0.1257290015968638
 -0.0002644981502932  0.8887814286317840  0.4589612100794143
 -0.0000046451156850  0.8885690095503617  0.7925263415836918
  0.1997162480228301  0.2217765769165873  0.1256362588696307
  0.1970673928327387  0.2199507852477832  0.4578742066047596
  0.1999690251059272  0.2220215053197686  0.7924665020679811
  0.2001084307531499  0.5554067240839015  0.1260042338548595
  0.2002663646285809  0.5555978908380692  0.4584797321845070
  0.2001827359525875  0.5554505546167330  0.7925510282499012
  0.1997983436336104  0.8889044562077407  0.1253968122477097
  0.1993507603771213  0.8911036599547184  0.4585215991129067
  0.1999860659909635  0.8888329256012785  0.7925509713353500
  0.4000000059999991  0.2218399269202394  0.1253747696150448
  0.4000000059999991  0.2220542739747915  0.4588274142840361
  0.4000000059999991  0.2223939020535068  0.7922636391122201
  0.4000000059999991  0.5552777523113723  0.1268488342908107
  0.4000000059999991  0.5550828599268693  0.7898740975155464
  0.4000000059999991  0.8889978427115435  0.1253556819126269
  0.4000000059999991  0.8906258081966113  0.4587273053344578
  0.4000000059999991  0.8890485660371942  0.7925219904211730
  0.6002837639771675  0.2217765769165873  0.1256362588696307
  0.6029326341672576  0.2199507852477832  0.4578742066047596
  0.6000310018940757  0.2220215053197686  0.7924665020679811
  0.5998915662468507  0.5554067240839015  0.1260042338548595
  0.5997336923714170  0.5555978908380692  0.4584797321845070
  0.5998172760474106  0.5554505546167330  0.7925510282499012
  0.6002016983663903  0.8889044562077407  0.1253968122477097
  0.6006492966228772  0.8911036599547184  0.4585215991129067
  0.6000139760090368  0.8888329256012785  0.7925509713353500
  0.8001852850537725  0.2220336381436852  0.1258229324231113
  0.8005370534674815  0.2226998068627878  0.4591358335676791
  0.8000999943354238  0.2219998106638229  0.7926355755270356
  0.8000567897406728  0.5553634225965284  0.1255335282516453
  0.8003773717549135  0.5555157034517316  0.4586209856930097
  0.8000375188513927  0.5552773757001378  0.7922312161131526
  0.7999894955354925  0.8885956757755230  0.1257290015968638
  0.8002645361502929  0.8887814286317840  0.4589612100794143
  0.8000046361156845  0.8885690095503617  0.7925263415836918
  0.0998188012518924  0.2779383763269863  0.2922431801697518
  0.1000612752870837  0.2780795179582071  0.6258444618054505
  0.0997392599663491  0.2772656265169751  0.9590987809493180
  0.1000305068051741  0.6113522578139405  0.2921702023373373
  0.1001037138618493  0.6113322987678311  0.6253535224063141
  0.1002067917317244  0.6105734392086085  0.9589683606898435
  0.0996361911914678  0.9445221086725131  0.2920733812787477
  0.0998655367300742  0.9445994989846929  0.6259644360255772
  0.0998833982118335  0.9438818742002231  0.9590826955744310
  0.2998917918511219  0.2767752457047491  0.2916803296022364
  0.2996782196702054  0.2773859850197299  0.6253667289660759
  0.2998782514026992  0.2775407832344484  0.9592036579512609
  0.2996320842110187  0.6118779504671080  0.2931759366244727
  0.2997179914325507  0.6118872793979495  0.6250544432767743
  0.3003023940112749  0.6105066528715607  0.9590695607550154
  0.2997749770043474  0.9444022828645738  0.2919759560241498
  0.2998924364475997  0.9445917930589383  0.6256899076319629
  0.2999155109672639  0.9440471905760214  0.9589220447353000
  0.5001082201488766  0.2767752457047491  0.2916803296022364
  0.5003217923298001  0.2773859850197299  0.6253667289660759
  0.5001217605973060  0.2775407832344484  0.9592036579512609
  0.5003679577889822  0.6118779504671080  0.2931759366244727
  0.5002820205674542  0.6118872793979495  0.6250544432767743
  0.4996976179887233  0.6105066528715607  0.9590695607550154
  0.5002250049956477  0.9444022828645738  0.2919759560241498
  0.5001075755523986  0.9445917930589383  0.6256899076319629
  0.5000845010327338  0.9440471905760214  0.9589220447353000
  0.7001811887481040  0.2779383763269863  0.2922431801697518
  0.6999386847129173  0.2780795179582071  0.6258444618054505
  0.7002607070336484  0.2772656265169751  0.9590987809493180
  0.6999694601948241  0.6113522578139405  0.2921702023373373
  0.6998962461381447  0.6113322987678311  0.6253535224063141
  0.6997931822682775  0.6105734392086085  0.9589683606898435
  0.7003637908085351  0.9445221086725131  0.2920733812787477
  0.7001344382699248  0.9445994989846929  0.6259644360255772
  0.7001165837881695  0.9438818742002231  0.9590826955744310
  0.8999999759999966  0.2779666772276548  0.2925147962356377
  0.8999999759999966  0.2778649806901040  0.6259777137848918
  0.8999999759999966  0.2771314936056233  0.9593419371054490
  0.8999999759999966  0.6110053695191979  0.2921288293410581
  0.8999999759999966  0.6110817236627137  0.6255455789586446
  0.8999999759999966  0.6106193215941088  0.9589032271803619
  0.8999999759999966  0.9444312052953565  0.2924668987155526
  0.8999999759999966  0.9444976321594277  0.6257678653056753
  0.8999999759999966  0.9440405379027426  0.9591085634928622
 -0.0000823942676870  0.1112819920679609  0.2923452187263834
 -0.0000491968131556  0.1113531379230621  0.6258306193904166
 -0.0000288258102829  0.1105227144409458  0.9591412090340596
  0.0001258027377259  0.4445143468192783  0.2923228824025306
 -0.0000520979094059  0.4446152541640760  0.6256386633800718
 -0.0000792225570983  0.4437641831980773  0.9589947459162874
 -0.0001605287959768  0.7777887095627818  0.2922859496251990
 -0.0000902326121262  0.7778045783710419  0.6256595192914556
 -0.0001690185525516  0.7772388334033592  0.9590128720323253
  0.1996177351462560  0.1105342620107489  0.2919129244999735
  0.1996983029994478  0.1110307220233760  0.6257015745176214
  0.1997162454824889  0.1106057056682606  0.9590101614246553
  0.2001160054298399  0.4443661199015416  0.2922974657346004
  0.1999131486038684  0.4447863300239140  0.6260400001150055
  0.1999918430335710  0.4441547160003225  0.9595011937655379
  0.1994592682902049  0.7781958798267062  0.2918545757231732
  0.1998675606978961  0.7782047108006321  0.6257596340527791
  0.1999976514740772  0.7773995600357494  0.9592356188145543
  0.4000000059999991  0.1106388611906044  0.2921933277940592
  0.4000000059999991  0.1113077768950222  0.6254036600919730
  0.4000000059999991  0.1107076133103079  0.9586948655285167
  0.4000000059999991  0.4441643681877915  0.2946734051459017
  0.4000000059999991  0.4417078087583070  0.6271590437757179
  0.4000000059999991  0.4442704052683744  0.9592283397484472
  0.4000000059999991  0.7783391311267363  0.2919570960911877
  0.4000000059999991  0.7784423118608255  0.6257191594896174
  0.4000000059999991  0.7775106301879491  0.9593940869321527
  0.6003822768537489  0.1105342620107489  0.2919129244999735
  0.6003017390005532  0.1110307220233760  0.6257015745176214
  0.6002837965175121  0.1106057056682606  0.9590101614246553
  0.5998840365701607  0.4443661199015416  0.2922974657346004
  0.6000869083961374  0.4447863300239140  0.6260400001150055
  0.6000081989664299  0.4441547160003225  0.9595011937655379
  0.6005407437097936  0.7781958798267062  0.2918545757231732
  0.6001324363021046  0.7782047108006321  0.6257596340527791
  0.6000023755259186  0.7773995600357494  0.9592356188145543
  0.8000824062676922  0.1112819920679609  0.2923452187263834
  0.8000492378131523  0.1113531379230621  0.6258306193904166
  0.8000288278102796  0.1105227144409458  0.9591412090340596
  0.7998742092622722  0.4445143468192783  0.2923228824025306
  0.8000521309094021  0.4446152541640760  0.6256386633800718
  0.8000792335570998  0.4437641831980773  0.9589947459162874
  0.8001605327959745  0.7777887095627818  0.2922859496251990
  0.8000902166121285  0.7778045783710419  0.6256595192914556
  0.8001690395525539  0.7772388334033592  0.9590128720323253
  0.4000000059999991  0.5784745742043964  0.4527723788744030
  0.4000000059999991  0.5248615356846833  0.4851199839842423
 
  0.00000000E+00  0.00000000E+00  0.00000000E+00
  0.00000000E+00  0.00000000E+00  0.00000000E+00
  0.00000000E+00  0.00000000E+00  0.00000000E+00
  0.00000000E+00  0.00000000E+00  0.00000000E+00
  0.00000000E+00  0.00000000E+00  0.00000000E+00
  0.00000000E+00  0.00000000E+00  0.00000000E+00
  0.00000000E+00  0.00000000E+00  0.00000000E+00
  0.00000000E+00  0.00000000E+00  0.00000000E+00
  0.00000000E+00  0.00000000E+00  0.00000000E+00
  0.00000000E+00  0.00000000E+00  0.00000000E+00
  0.00000000E+00  0.00000000E+00  0.00000000E+00
  0.00000000E+00  0.00000000E+00  0.00000000E+00
  0.00000000E+00  0.00000000E+00  0.00000000E+00
  0.00000000E+00  0.00000000E+00  0.00000000E+00
  0.00000000E+00  0.00000000E+00  0.00000000E+00
  0.00000000E+00  0.00000000E+00  0.00000000E+00
  0.00000000E+00  0.00000000E+00  0.00000000E+00
  0.00000000E+00  0.00000000E+00  0.00000000E+00
  0.00000000E+00  0.00000000E+00  0.00000000E+00
  0.00000000E+00  0.00000000E+00  0.00000000E+00
  0.00000000E+00  0.00000000E+00  0.00000000E+00
  0.00000000E+00  0.00000000E+00  0.00000000E+00
  0.00000000E+00  0.00000000E+00  0.00000000E+00
  0.00000000E+00  0.00000000E+00  0.00000000E+00
  0.00000000E+00  0.00000000E+00  0.00000000E+00
  0.00000000E+00  0.00000000E+00  0.00000000E+00
  0.00000000E+00  0.00000000E+00  0.00000000E+00
  0.00000000E+00  0.00000000E+00  0.00000000E+00
  0.00000000E+00  0.00000000E+00  0.00000000E+00
  0.00000000E+00  0.00000000E+00  0.00000000E+00
  0.00000000E+00  0.00000000E+00  0.00000000E+00
  0.00000000E+00  0.00000000E+00  0.00000000E+00
  0.00000000E+00  0.00000000E+00  0.00000000E+00
  0.00000000E+00  0.00000000E+00  0.00000000E+00
  0.00000000E+00  0.00000000E+00  0.00000000E+00
  0.00000000E+00  0.00000000E+00  0.00000000E+00
  0.00000000E+00  0.00000000E+00  0.00000000E+00
  0.00000000E+00  0.00000000E+00  0.00000000E+00
  0.00000000E+00  0.00000000E+00  0.00000000E+00
  0.00000000E+00  0.00000000E+00  0.00000000E+00
  0.00000000E+00  0.00000000E+00  0.00000000E+00
  0.00000000E+00  0.00000000E+00  0.00000000E+00
  0.00000000E+00  0.00000000E+00  0.00000000E+00
  0.00000000E+00  0.00000000E+00  0.00000000E+00
  0.00000000E+00  0.00000000E+00  0.00000000E+00
  0.00000000E+00  0.00000000E+00  0.00000000E+00
  0.00000000E+00  0.00000000E+00  0.00000000E+00
  0.00000000E+00  0.00000000E+00  0.00000000E+00
  0.00000000E+00  0.00000000E+00  0.00000000E+00
  0.00000000E+00  0.00000000E+00  0.00000000E+00
  0.00000000E+00  0.00000000E+00  0.00000000E+00
  0.00000000E+00  0.00000000E+00  0.00000000E+00
  0.00000000E+00  0.00000000E+00  0.00000000E+00
  0.00000000E+00  0.00000000E+00  0.00000000E+00
  0.00000000E+00  0.00000000E+00  0.00000000E+00
  0.00000000E+00  0.00000000E+00  0.00000000E+00
  0.00000000E+00  0.00000000E+00  0.00000000E+00
  0.00000000E+00  0.00000000E+00  0.00000000E+00
  0.00000000E+00  0.00000000E+00  0.00000000E+00
  0.00000000E+00  0.00000000E+00  0.00000000E+00
  0.00000000E+00  0.00000000E+00  0.00000000E+00
  0.00000000E+00  0.00000000E+00  0.00000000E+00
  0.00000000E+00  0.00000000E+00  0.00000000E+00
  0.00000000E+00  0.00000000E+00  0.00000000E+00
  0.00000000E+00  0.00000000E+00  0.00000000E+00
  0.00000000E+00  0.00000000E+00  0.00000000E+00
  0.00000000E+00  0.00000000E+00  0.00000000E+00
  0.00000000E+00  0.00000000E+00  0.00000000E+00
  0.00000000E+00  0.00000000E+00  0.00000000E+00
  0.00000000E+00  0.00000000E+00  0.00000000E+00
  0.00000000E+00  0.00000000E+00  0.00000000E+00
  0.00000000E+00  0.00000000E+00  0.00000000E+00
  0.00000000E+00  0.00000000E+00  0.00000000E+00
  0.00000000E+00  0.00000000E+00  0.00000000E+00
  0.00000000E+00  0.00000000E+00  0.00000000E+00
  0.00000000E+00  0.00000000E+00  0.00000000E+00
  0.00000000E+00  0.00000000E+00  0.00000000E+00
  0.00000000E+00  0.00000000E+00  0.00000000E+00
  0.00000000E+00  0.00000000E+00  0.00000000E+00
  0.00000000E+00  0.00000000E+00  0.00000000E+00
  0.00000000E+00  0.00000000E+00  0.00000000E+00
  0.00000000E+00  0.00000000E+00  0.00000000E+00
  0.00000000E+00  0.00000000E+00  0.00000000E+00
  0.00000000E+00  0.00000000E+00  0.00000000E+00
  0.00000000E+00  0.00000000E+00  0.00000000E+00
  0.00000000E+00  0.00000000E+00  0.00000000E+00
  0.00000000E+00  0.00000000E+00  0.00000000E+00
  0.00000000E+00  0.00000000E+00  0.00000000E+00
  0.00000000E+00  0.00000000E+00  0.00000000E+00
  0.00000000E+00  0.00000000E+00  0.00000000E+00
  0.00000000E+00  0.00000000E+00  0.00000000E+00
  0.00000000E+00  0.00000000E+00  0.00000000E+00
  0.00000000E+00  0.00000000E+00  0.00000000E+00
  0.00000000E+00  0.00000000E+00  0.00000000E+00
  0.00000000E+00  0.00000000E+00  0.00000000E+00
  0.00000000E+00  0.00000000E+00  0.00000000E+00
  0.00000000E+00  0.00000000E+00  0.00000000E+00
  0.00000000E+00  0.00000000E+00  0.00000000E+00
  0.00000000E+00  0.00000000E+00  0.00000000E+00
  0.00000000E+00  0.00000000E+00  0.00000000E+00
  0.00000000E+00  0.00000000E+00  0.00000000E+00
  0.00000000E+00  0.00000000E+00  0.00000000E+00
  0.00000000E+00  0.00000000E+00  0.00000000E+00
  0.00000000E+00  0.00000000E+00  0.00000000E+00
  0.00000000E+00  0.00000000E+00  0.00000000E+00
  0.00000000E+00  0.00000000E+00  0.00000000E+00
  0.00000000E+00  0.00000000E+00  0.00000000E+00
  0.00000000E+00  0.00000000E+00  0.00000000E+00
  0.00000000E+00  0.00000000E+00  0.00000000E+00
  0.00000000E+00  0.00000000E+00  0.00000000E+00
  0.00000000E+00  0.00000000E+00  0.00000000E+00
  0.00000000E+00  0.00000000E+00  0.00000000E+00
  0.00000000E+00  0.00000000E+00  0.00000000E+00
  0.00000000E+00  0.00000000E+00  0.00000000E+00
  0.00000000E+00  0.00000000E+00  0.00000000E+00
  0.00000000E+00  0.00000000E+00  0.00000000E+00
  0.00000000E+00  0.00000000E+00  0.00000000E+00
  0.00000000E+00  0.00000000E+00  0.00000000E+00
  0.00000000E+00  0.00000000E+00  0.00000000E+00
  0.00000000E+00  0.00000000E+00  0.00000000E+00
  0.00000000E+00  0.00000000E+00  0.00000000E+00
  0.00000000E+00  0.00000000E+00  0.00000000E+00
  0.00000000E+00  0.00000000E+00  0.00000000E+00
  0.00000000E+00  0.00000000E+00  0.00000000E+00
  0.00000000E+00  0.00000000E+00  0.00000000E+00
  0.00000000E+00  0.00000000E+00  0.00000000E+00
  0.00000000E+00  0.00000000E+00  0.00000000E+00
  0.00000000E+00  0.00000000E+00  0.00000000E+00
  0.00000000E+00  0.00000000E+00  0.00000000E+00
  0.00000000E+00  0.00000000E+00  0.00000000E+00
  0.00000000E+00  0.00000000E+00  0.00000000E+00
  0.00000000E+00  0.00000000E+00  0.00000000E+00
  0.00000000E+00  0.00000000E+00  0.00000000E+00
  0.00000000E+00  0.00000000E+00  0.00000000E+00
  0.00000000E+00  0.00000000E+00  0.00000000E+00
  0.00000000E+00  0.00000000E+00  0.00000000E+00
  0.00000000E+00  0.00000000E+00  0.00000000E+00
  0.00000000E+00  0.00000000E+00  0.00000000E+00
  0.00000000E+00  0.00000000E+00  0.00000000E+00
  0.00000000E+00  0.00000000E+00  0.00000000E+00
  0.00000000E+00  0.00000000E+00  0.00000000E+00
  0.00000000E+00  0.00000000E+00  0.00000000E+00
  0.00000000E+00  0.00000000E+00  0.00000000E+00
  0.00000000E+00  0.00000000E+00  0.00000000E+00
  0.00000000E+00  0.00000000E+00  0.00000000E+00
  0.00000000E+00  0.00000000E+00  0.00000000E+00
  0.00000000E+00  0.00000000E+00  0.00000000E+00
  0.00000000E+00  0.00000000E+00  0.00000000E+00
  0.00000000E+00  0.00000000E+00  0.00000000E+00
  0.00000000E+00  0.00000000E+00  0.00000000E+00
  0.00000000E+00  0.00000000E+00  0.00000000E+00
  0.00000000E+00  0.00000000E+00  0.00000000E+00
  0.00000000E+00  0.00000000E+00  0.00000000E+00
  0.00000000E+00  0.00000000E+00  0.00000000E+00
  0.00000000E+00  0.00000000E+00  0.00000000E+00
  0.00000000E+00  0.00000000E+00  0.00000000E+00