GaN_ONH                                 
    1.000000000000000     
    15.8909244537000003    0.0000000000000000    0.0000000000000000
     0.0000000000000000   16.5143318175999987    0.0000000000000000
     0.0000000000000000    0.0000000000000000   15.4982528686999999
   Ga   N    O    H 
   180   179     1     1
Direct
  0.0998549363886454  0.0556242216022511  0.3328122042170989
  0.0998832337700364  0.0556246016337099  0.6664569437185435
  0.0998775857176000  0.0555813290009084  0.9995849336171787
  0.0998144822078402  0.3886539317039777  0.3328981659606711
  0.0994862153618001  0.3884920564633916  0.6670193149681651
  0.0998184028566200  0.3886714209735658  0.9998873750792754
  0.0997486812653889  0.7226781649578768  0.3328155151336745
  0.0997770111744600  0.7224303290155873  0.6666844788189223
  0.0997916506146126  0.7224194347893800  0.9998034705702281
  0.3000201556053810  0.0556790884493168  0.3328791193777363
  0.2999642754330694  0.0557436229745605  0.6665368064557526
  0.2999602801655215  0.0556308648068367  0.9996758871006151
  0.2996337868805981  0.3876625913905869  0.3317134310465022
  0.2990442130421727  0.3880584533053977  0.6683460787790807
  0.2997968034487144  0.3885231150137045  0.9995491081760122
  0.2998923923962238  0.7233366285510030  0.3319265904095303
  0.2998984246561491  0.7240567187894840  0.6687754591966524
  0.2998901222243333  0.7227427764409597  0.9994705604256566
  0.5002423617190601  0.0556417400835585  0.3328594726706271
  0.5001478251987876  0.0556870481239926  0.6665213208664227
  0.5001382946829551  0.0556115231423817  0.9996456557359323
  0.5010385856046398  0.3881698955072537  0.3319261629152805
  0.5016749168105719  0.3878578781538167  0.6687774345652642
  0.5004720917503107  0.3884755031072800  0.9994766414357272
  0.5003469349835186  0.7236117722050466  0.3318953845563755
  0.4999020083282062  0.7236890498347393  0.6681062942440263
  0.5002431490452679  0.7226766552620347  0.9995213641343099
  0.7003621046274020  0.0555660161441196  0.3327559392634001
  0.7002512636405385  0.0554845007863349  0.6664141076555197
  0.7001950692656465  0.0555171629799176  0.9995444568561069
  0.7007331158105359  0.3885328825593746  0.3328411567656246
  0.7008892164677505  0.3883734151712588  0.6668423778633823
  0.7004850666318490  0.3886048225344467  0.9998208997517182
  0.7004810562762387  0.7224597924589133  0.3327065110952745
  0.7002307117727256  0.7223112499507209  0.6666958288521911
  0.7003109119703907  0.7223639743655923  0.9997309138524599
  0.9001113852246689  0.0555745927248807  0.3328301419101223
  0.9000634624397676  0.0554649779547773  0.6663260854195840
  0.9000421635917490  0.0555172791706084  0.9995468997895998
  0.9002455066834116  0.3886668503189767  0.3328593777490312
  0.9001866401781484  0.3886727125019860  0.6665687798418460
  0.9001362979411240  0.3887190221820447  0.9996909136622918
  0.9001136980551863  0.7223409946663040  0.3328259668204367
  0.9000314226768538  0.7222728990417409  0.6664769980204994
  0.9000588949946220  0.7222865893033017  0.9996014094157246
  0.0000089183281702  0.2221044284531075  0.3328616235886486
  0.9999740638690753  0.2220422118861620  0.6664846799619539
  0.9999677890529668  0.2220905899212227  0.9996477232516341
  0.9997013204470591  0.5554421341325408  0.3326233227326156
  0.9997892992318285  0.5554573878698079  0.6667099648238732
  0.9999000587069915  0.5554869756735528  0.9997331947121424
  0.9999422916862599  0.8890897175584485  0.3328394119629223
  0.9999222864127262  0.8889677223178225  0.6664005377005182
  0.9999344152444323  0.8889759207425882  0.9995712262348420
  0.1996874734430776  0.2217878153952810  0.3326734479243854
  0.1997862650071554  0.2219586032290266  0.6666813406484877
  0.1998525873092092  0.2220135231624027  0.9997536941442746
  0.1988094536314193  0.5557713277941829  0.3317244628787179
  0.1988276174152332  0.5551039352717169  0.6683401802699080
  0.1996446405475467  0.5554772405941364  0.9995444633290305
  0.1998360496160245  0.8895153123341046  0.3326062641989296
  0.1998030177815551  0.8894666963885669  0.6666729940577270
  0.1998729636071133  0.8892044244403579  0.9997564240854260
  0.4003111636208416  0.2218010832913251  0.3328345698206405
  0.4001179357766702  0.2219849387993946  0.6667217453585934
  0.4000890197208662  0.2219360410404860  0.9998387420488584
  0.4011113444285428  0.5560804574680915  0.3166214892132402
  0.3999155264937002  0.5554595003202820  0.6670276716462595
  0.4001144212458243  0.5555638298943322  0.0002090471999949
  0.4000950585517913  0.8895230400090952  0.3328440411145195
  0.4000155628391937  0.8897660639512424  0.6668498846408113
  0.4000412982371202  0.8893324862029033  0.9998223781193118
  0.6006338810535325  0.2217877968125990  0.3325945199475413
  0.6005461481720573  0.2217897748182054  0.6666786715011384
  0.6003391703794350  0.2219661385796812  0.9997581175380006
  0.6014450843426857  0.5550715760610743  0.3319081403139066
  0.6013003187643946  0.5546791123548758  0.6681079720476646
  0.6005567561009002  0.5554529060243212  0.9995248811062396
  0.6003341314880046  0.8894681337087746  0.3325340873138813
  0.6001703910883265  0.8892930595100097  0.6665986504315171
  0.6001852786905886  0.8891288543806297  0.9996689837378483
  0.8003706643752579  0.2220563659529020  0.3328432826481560
  0.8003049074012623  0.2219713894825333  0.6664458656462884
  0.8002008197788797  0.2220458134193493  0.9996106315540700
  0.8005844610717290  0.5553906700861972  0.3325377628662523
  0.8004256546423676  0.5553748083004919  0.6666790827179341
  0.8002798405643716  0.5554560689812220  0.9997003755982803
  0.8002223196067959  0.8890375137656221  0.3327907572559710
  0.8001094696726625  0.8889098529116453  0.6663726389054005
  0.8001331312434772  0.8889431464829940  0.9995447375018287
  0.0999111389505742  0.2776555421433144  0.1662596297346468
  0.0996722948331126  0.2774956002116156  0.4998518713598585
  0.0999419375000841  0.2776473202272314  0.8332932562400401
  0.0995011040564577  0.6114222822497482  0.1659840190385964
  0.0978902258875394  0.6113326022599139  0.4998190881002600
  0.0996573554064071  0.6114071183373539  0.8335589589140682
  0.0997954318768421  0.9447119455165591  0.1661414526929406
  0.0994803482776945  0.9450928364473583  0.4996858331009406
  0.0998344675262288  0.9446238386878463  0.8330814251643233
  0.2999325245142614  0.2771482385147266  0.1660066765948329
  0.2990457950905352  0.2758480911676813  0.4998221320559821
  0.3000360929987025  0.2773461333197318  0.8335765918377973
  0.2987327921589227  0.6120812040225587  0.1641198799156101
  0.2886011018141943  0.6204503687755789  0.5062592383142501
  0.3000374462092807  0.6112410304956484  0.8339175093897353
  0.2999675983324082  0.9447552817347216  0.1662328637480499
  0.3000007163754503  0.9451177432595088  0.4997829327125629
  0.2998971877981091  0.9446826942823776  0.8332483802858377
  0.5003932481029238  0.2771686668918178  0.1660998361373274
  0.5015772118947908  0.2752217585689962  0.4999243749707105
  0.5001875226206565  0.2772025717842297  0.8336461400165476
  0.5015326233899202  0.6119658819607778  0.1641164388045411
  0.5126873334777997  0.6182036387586010  0.5046888097762903
  0.5000948913735002  0.6111760266688151  0.8338372709548665
  0.5001817672674065  0.9447321480110276  0.1661890935467198
  0.5001030441930112  0.9450540480795411  0.4997888271458564
  0.5001382559129510  0.9446425166281927  0.8332221951134144
  0.7003976297899257  0.2775853882006132  0.1662153290944985
  0.7007556572026346  0.2774220955140478  0.4997624427926368
  0.7002631591977817  0.2775780210503314  0.8332252505110418
  0.7007655922715159  0.6113485935285610  0.1660466818052697
  0.7024552449792694  0.6113422414283534  0.4999234856433930
  0.7004407579532312  0.6113300985786552  0.8334563516580289
  0.7003373322143460  0.9446464304971443  0.1660842633167050
  0.7005414583886989  0.9447897462241954  0.4996358897359698
  0.7001728411417858  0.9445210832075048  0.8330247777886228
  0.9001400467866958  0.2777123704940152  0.1662032905218069
  0.9001784375577699  0.2776193566359666  0.4997216721319333
  0.9000847265004097  0.2777164533832064  0.8330821032670315
  0.9001180811643934  0.6113049532621346  0.1660999716726579
  0.9000967855149469  0.6112244739811388  0.4997371644149524
  0.9000593496313058  0.6112324263655040  0.8331652615667693
  0.9000639750127846  0.9446057815067093  0.1661442238279847
  0.9000449617274313  0.9445773628284684  0.4995903820993561
  0.9000096941417084  0.9445271785853748  0.8329592377905328
  0.9999609192909560  0.1111592105170800  0.1661717108745648
  0.9998856746530294  0.1112090248031166  0.4996504534019905
  0.9999523469512397  0.1111182090147267  0.8330142003847953
  0.0000004965600198  0.4444080046915602  0.1662496096976867
  0.9997960476305465  0.4442048882211793  0.4998719083119099
  0.9999538597872544  0.4444574191275663  0.8333187891625329
  0.9998804781095672  0.7780783267497924  0.1662074305190515
  0.9996880158155079  0.7781075984244126  0.4997009326946795
  0.9998793771312506  0.7779662734060580  0.8330743032055778
  0.1998859926076264  0.1109681463398999  0.1661728902885784
  0.1997270303150884  0.1108049145035608  0.4997272652995619
  0.1999242940180679  0.1110826525696424  0.8331310799242360
  0.1998019735476291  0.4443086355086479  0.1660538836840360
  0.1986651360420950  0.4436840345419810  0.5014518397954859
  0.1997098881762724  0.4442761674024212  0.8338708997936379
  0.1996122401240896  0.7784021508367331  0.1660921613641406
  0.1983840628023827  0.7803494946786174  0.4999058784529424
  0.1995197177338000  0.7782280753277107  0.8336274209673462
  0.4001111950401111  0.1109644629966056  0.1662538513702003
  0.4000935093877587  0.1109588546142604  0.4997673149450819
  0.4000422688710756  0.1110126633414339  0.8331522079798646
  0.4002449644418462  0.4428706464566687  0.1641117465445348
  0.4027093557135331  0.4301970419156973  0.5062647556944526
  0.4001363400171130  0.4444213966439179  0.8339215608248480
  0.4000581524643607  0.7783919123263203  0.1658806800369987
  0.3999424153945839  0.7794595419076416  0.5008881422018661
  0.4000918848943300  0.7783934159498642  0.8339066326708036
  0.6002933124901162  0.1109388062612453  0.1661437551080098
  0.6005794282494392  0.1105585953346804  0.4996980331453145
  0.6001826140827191  0.1109896988963541  0.8331091733570446
  0.6006182970519376  0.4441761373824420  0.1658837624164349
  0.6015221267982156  0.4435630182760661  0.5008852738300789
  0.6006275541483959  0.4442247512456632  0.8339072751332210
  0.6006187564120751  0.7783494466040466  0.1660453970878777
  0.6015157874071733  0.7798180392406380  0.4998957813960487
  0.6004136078115678  0.7780639964660025  0.8334369799765042
  0.8001991221044875  0.1111146399140566  0.1661452670531887
  0.8002997873817819  0.1110934547052338  0.4996191064903854
  0.8001262529240378  0.1110652583652083  0.8329877662761689
  0.8003900755469573  0.4443655783007685  0.1662014223644448
  0.8006227300231288  0.4440916681462426  0.4998144815339174
  0.8002772878368489  0.4444079664607301  0.8332596123669376
  0.8002967189168899  0.7780290434771189  0.1661694596784500
  0.8004081882421872  0.7780517251501564  0.4996806144928669
  0.8001654358582257  0.7779349321516023  0.8330529937961870
  0.0999500907597195  0.0556658379109081  0.1251836804039854
  0.0998417810511754  0.0558171285930555  0.4584480755676381
  0.1000165993177120  0.0556395845078583  0.7919604634308826
  0.1000524273041350  0.3888617047144365  0.1255353224406477
  0.1001886890890802  0.3889036390915095  0.4587045307456350
  0.1000564426695902  0.3889021657670924  0.7923192802183792
  0.0999781628165906  0.7224020758340899  0.1254335153984769
  0.1001971079658830  0.7222507362216533  0.4586782462459027
  0.1000464984427438  0.7222702203622475  0.7920791823866438
  0.3000488798306478  0.0557179104416079  0.1253074458358512
  0.3000664791445899  0.0559283844523293  0.4585529369007446
  0.3000093868116949  0.0556686959360917  0.7920222549206599
  0.2997177384233183  0.3885251284957292  0.1253384601203962
  0.3000056667866602  0.3890794437562874  0.4586257002025107
  0.3001023863180663  0.3889192564332546  0.7930572236595168
  0.2999318381021538  0.7229615479092359  0.1252039589755611
  0.3000971974287268  0.7244689581653532  0.4580763661265976
  0.3000101559469428  0.7224634918629249  0.7933224224879396
  0.5001239180935571  0.0556908850936324  0.1252676926294711
  0.5001336778020331  0.0558544725724843  0.4585463057596826
  0.5000594451589748  0.0556300330283648  0.7920072798404405
  0.5006614694428606  0.3884733249488974  0.1252051975308177
  0.5021021482362968  0.3878830368380477  0.4580704525654369
  0.5002420477123763  0.3888088984068929  0.7933243396217264
  0.5002430116724028  0.7228471984584175  0.1253601365847317
  0.4992641225168981  0.7229103260604006  0.4580420331271284
  0.4999791125598847  0.7222304489544555  0.7928124235380025
  0.7002140241625696  0.0556059548415675  0.1251465269512551
  0.7003783699006121  0.0555169516458065  0.4584054072088293
  0.7000782009270594  0.0555402007046979  0.7919182547546413
  0.7003775612555216  0.3887799472299420  0.1254268125953786
  0.7004414616342558  0.3887820648226636  0.4586135376365306
  0.7002044807331487  0.3888342538700229  0.7922017961291985
  0.7002128880981502  0.7223249468398762  0.1253843020483671
  0.6998278703055618  0.7220899088157466  0.4586220477054042
  0.7000005108679233  0.7222082747285228  0.7920362988794665
  0.9000908756362307  0.0555948690198775  0.1251550110157282
  0.9001259416542311  0.0555502625159932  0.4584769948466842
  0.9000559755624096  0.0555553093858236  0.7918627717826610
  0.9002143028758240  0.3888436230277676  0.1253047325385594
  0.9002783376394632  0.3887165108263559  0.4585291757478487
  0.9001372085257984  0.3889061067859956  0.7920528227244787
  0.9001069734364293  0.7222923078351684  0.1252402621470807
  0.9000428400800118  0.7221002474844127  0.4585272706715671
  0.9000317358056549  0.7222101532260794  0.7919559154135030
  0.0000841940737786  0.2222528316898504  0.1252570475609787
  0.0000684313571568  0.2222812839104193  0.4585121360997846
  0.0000952594469723  0.2222609055399047  0.7919936596991235
  0.9999863556234629  0.5555181555962747  0.1253730364198731
  0.9996807627364035  0.5551994198263444  0.4583387355428243
  0.0000973999151839  0.5555797925687642  0.7921181141033529
  0.0000141791284420  0.8889845896492474  0.1251957451809602
  0.0000367931054797  0.8889201795050212  0.4585058110641498
  0.0000188875405982  0.8889146192614916  0.7919104354876723
  0.1999214977926798  0.2221321650672792  0.1253894586670015
  0.1995565615519297  0.2219988753805637  0.4583696666611843
  0.2000784885377840  0.2223108631694330  0.7921080872094421
  0.1995675126447480  0.5554694178001753  0.1253352883340355
  0.2001820890243096  0.5554605758514626  0.4586445732795426
  0.2000667373051854  0.5556166294660088  0.7930526348546820
  0.1999735049932383  0.8892493559789614  0.1253754682115940
  0.1998808822566218  0.8900488120704395  0.4583313838961089
  0.1999897797939170  0.8890146900331999  0.7920869628423617
  0.4001496200137780  0.2221671057554673  0.1254639793986740
  0.4001767729186696  0.2225373311887964  0.4586878634980067
  0.4000827293234082  0.2222936502459021  0.7921150791087044
  0.4001629367463551  0.5556292309492648  0.1268873554507692
  0.4000729032030748  0.5555968465010892  0.7919334719706441
  0.4000641932625442  0.8892343899619917  0.1254360004125630
  0.4001057430346293  0.8892989359736134  0.4586197850962321
  0.4000117564810353  0.8890708382921417  0.7922094856545741
  0.6003545494908096  0.2220961526067953  0.1253676334808276
  0.6010206500209279  0.2216447011695379  0.4583148354039892
  0.6001328259335921  0.2222081011822041  0.7920914567625843
  0.6006763518272820  0.5554324270927609  0.1253628119401142
  0.6001864050255818  0.5546091217747815  0.4580502453780397
  0.6000033118590551  0.5555442229568541  0.7928151700745687
  0.6001490810444352  0.8891731060542085  0.1253064281017728
  0.6000101024994748  0.8895531757779338  0.4582927019288263
  0.6000033892967878  0.8888908081260425  0.7920039278651245
  0.8002270600768497  0.2222017066229114  0.1252164341699071
  0.8003695686406971  0.2221636374214668  0.4584878866338897
  0.8001191408791897  0.2222034565775317  0.7919555849227322
  0.8002797509222788  0.5554870851665115  0.1253341748909733
  0.8004349192121225  0.5551234777863243  0.4582908137661263
  0.8000405725987747  0.5555438355230891  0.7920651918375157
  0.8001408863642467  0.8889420205828884  0.1251702865829287
  0.8000779861581648  0.8888204837327009  0.4584671637056275
  0.8000236086196040  0.8888764087494962  0.7918797128359643
  0.1001238922357643  0.2778313069708531  0.2919808776183004
  0.1001161885021347  0.2778014147799297  0.6253688442994516
  0.1000410042855009  0.2777418736063453  0.9588058279618821
  0.0997754191528699  0.6114461136365748  0.2919322797914816
  0.1002127420558736  0.6110836514870286  0.6252995247618571
  0.0999285460047830  0.6112427167698158  0.9589552602108213
  0.0998942426297589  0.9445764067091460  0.2917959486436388
  0.0999248936275805  0.9445110008383324  0.6252318162958233
  0.0999487160935502  0.9444912035124418  0.9586175129544330
  0.3001464836688328  0.2772958194310462  0.2919560496950382
  0.3000972968233029  0.2779204019871671  0.6253051675663670
  0.3000686386200471  0.2775574258331375  0.9589757687266740
  0.2993153014670398  0.6118682916227769  0.2912492894012928
  0.2999272291095849  0.6117189680699937  0.6273120082718222
  0.3001590643932985  0.6111191893097896  0.9594558189915929
  0.3000849417828135  0.9445462446180173  0.2919504003939366
  0.2999784174440734  0.9445661664914979  0.6253192153628433
  0.2999761131646750  0.9444957796507580  0.9587619993679013
  0.5002816771354333  0.2774750765019149  0.2919788886118724
  0.5002356584977505  0.2777748079843647  0.6254011421232022
  0.5001238033719062  0.2774842093510514  0.9589910970020838
  0.5016700999303012  0.6119937611088631  0.2920357341467437
  0.4999173670774013  0.6110270056220770  0.6259031405644393
  0.5000561678382667  0.6111008288579214  0.9593767735191747
  0.5001096756128760  0.9445164853330397  0.2919037453402211
  0.5000767215418875  0.9445014148402819  0.6253060930434771
  0.5000968397259911  0.9444787474745979  0.9587311842134980
  0.7002825557623780  0.2777313386838358  0.2919191800467544
  0.7001798530370422  0.2776604126181823  0.6253033098851688
  0.7001379635688423  0.2776848671744148  0.9587341364736872
  0.7004493953237869  0.6112445731819776  0.2919644627672398
  0.6998661629676945  0.6109576012833458  0.6252701739520248
  0.7002422437623324  0.6111836241098061  0.9588627913975074
  0.7002711238745079  0.9445097160497511  0.2917557905795150
  0.7000570499780068  0.9443423667397752  0.6251745986341959
  0.7001038684833034  0.9444224417545612  0.9585607300550762
  0.9001945125641555  0.2777867522245074  0.2918582205168150
  0.9001366160984858  0.2777666008210176  0.6252987935515222
  0.9000802142874349  0.2777504818647358  0.9586292259379050
  0.9001582774672485  0.6112635288350177  0.2918006014088590
  0.9000685831612003  0.6111214746778870  0.6252434089718406
  0.9000839426885037  0.6111323925985914  0.9586894211104138
  0.9000781425458086  0.9445145001295572  0.2918090211860260
  0.9000076449864807  0.9443626864168735  0.6251658795958051
  0.9000295261698383  0.9444511376253075  0.9585131963628228
  0.0000453858818545  0.1111776305088128  0.2918214149451543
  0.0000204499697460  0.1111111068000596  0.6252262531878898
  0.9999921850136317  0.1111129166410478  0.9585616689703826
  0.0002310896849522  0.4444607249136823  0.2919786131462132
  0.0001705503920846  0.4444926270266691  0.6253803605151376
  0.0000984333374632  0.4444443767716422  0.9588200446277213
  0.0000067840276259  0.7779252897096711  0.2919226439318621
  0.0000483909858886  0.7777441381888011  0.6252371756197235
  0.9999976078591075  0.7778247797538569  0.9586144660789344
  0.2000256353497321  0.1109692557564870  0.2918500036350480
  0.2000179011588088  0.1111375648053468  0.6252705469120912
  0.1999737944909157  0.1110731114175181  0.9586693003818993
  0.2002948168986762  0.4445534210906033  0.2922794880279440
  0.2001892335468156  0.4445098997945109  0.6262673461448856
  0.1999591500267996  0.4443648873561870  0.9591546171447902
  0.1998922953079543  0.7780691163113715  0.2919756065215111
  0.2001014860179637  0.7778985339073259  0.6253799136001348
  0.1998287161093657  0.7779562564324891  0.9589718018411872
  0.4001370638411501  0.1110176306905331  0.2919680192328258
  0.4000711956556202  0.1111848523255929  0.6253111028849858
  0.4000452607311473  0.1110337314668683  0.9586930490231680
  0.4003890395004390  0.4433685824434832  0.2912421410649628
  0.4005529915498300  0.4440131406970380  0.6273128497653744
  0.4001258206761023  0.4444933471261550  0.9594607184272874
  0.4001114434521540  0.7780004669142215  0.2919254003897365
  0.3999494563405221  0.7779683912837143  0.6259473579430903
  0.4001135209745428  0.7780181196914171  0.9591498787692885
  0.6002150047028394  0.1109261308776155  0.2918064175667396
  0.6001379951965546  0.1109882431178590  0.6252443917732862
  0.6001209303113058  0.1110313882242124  0.9586357436576023
  0.6003607985149984  0.4443558805487342  0.2919329476437795
  0.6002361705508079  0.4442611991235168  0.6259487554396230
  0.6003386720206763  0.4443505686546700  0.9591514447295353
  0.6003911435631721  0.7780245498907234  0.2919658142162618
  0.5998290253908038  0.7776408091425466  0.6252421896210620
  0.6002245659552941  0.7778668530354054  0.9588437852622889
  0.8001836325054086  0.1111302989277689  0.2917936637211795
  0.8000972654187564  0.1110285937249316  0.6251976648565716
  0.8000828104586901  0.1110676891419189  0.9585335451454569
  0.8002885408570393  0.4444068361445801  0.2919185733441765
  0.8002158143829163  0.4444430430702866  0.6253298731082424
  0.8001753826043156  0.4444195259499182  0.9587622584777762
  0.8001792669110159  0.7778553852322645  0.2919058561512600
  0.7999381558801275  0.7776561102508452  0.6252148924579970
  0.8001053676368812  0.7777936540814281  0.9585892612008564
  0.3799129543222222  0.5443062095807960  0.4503352827178446
  0.3270268186339038  0.5148793903602567  0.4335174188526025
 
  0.00000000E+00  0.00000000E+00  0.00000000E+00
  0.00000000E+00  0.00000000E+00  0.00000000E+00
  0.00000000E+00  0.00000000E+00  0.00000000E+00
  0.00000000E+00  0.00000000E+00  0.00000000E+00
  0.00000000E+00  0.00000000E+00  0.00000000E+00
  0.00000000E+00  0.00000000E+00  0.00000000E+00
  0.00000000E+00  0.00000000E+00  0.00000000E+00
  0.00000000E+00  0.00000000E+00  0.00000000E+00
  0.00000000E+00  0.00000000E+00  0.00000000E+00
  0.00000000E+00  0.00000000E+00  0.00000000E+00
  0.00000000E+00  0.00000000E+00  0.00000000E+00
  0.00000000E+00  0.00000000E+00  0.00000000E+00
  0.00000000E+00  0.00000000E+00  0.00000000E+00
  0.00000000E+00  0.00000000E+00  0.00000000E+00
  0.00000000E+00  0.00000000E+00  0.00000000E+00
  0.00000000E+00  0.00000000E+00  0.00000000E+00
  0.00000000E+00  0.00000000E+00  0.00000000E+00
  0.00000000E+00  0.00000000E+00  0.00000000E+00
  0.00000000E+00  0.00000000E+00  0.00000000E+00
  0.00000000E+00  0.00000000E+00  0.00000000E+00
  0.00000000E+00  0.00000000E+00  0.00000000E+00
  0.00000000E+00  0.00000000E+00  0.00000000E+00
  0.00000000E+00  0.00000000E+00  0.00000000E+00
  0.00000000E+00  0.00000000E+00  0.00000000E+00
  0.00000000E+00  0.00000000E+00  0.00000000E+00
  0.00000000E+00  0.00000000E+00  0.00000000E+00
  0.00000000E+00  0.00000000E+00  0.00000000E+00
  0.00000000E+00  0.00000000E+00  0.00000000E+00
  0.00000000E+00  0.00000000E+00  0.00000000E+00
  0.00000000E+00  0.00000000E+00  0.00000000E+00
  0.00000000E+00  0.00000000E+00  0.00000000E+00
  0.00000000E+00  0.00000000E+00  0.00000000E+00
  0.00000000E+00  0.00000000E+00  0.00000000E+00
  0.00000000E+00  0.00000000E+00  0.00000000E+00
  0.00000000E+00  0.00000000E+00  0.00000000E+00
  0.00000000E+00  0.00000000E+00  0.00000000E+00
  0.00000000E+00  0.00000000E+00  0.00000000E+00
  0.00000000E+00  0.00000000E+00  0.00000000E+00
  0.00000000E+00  0.00000000E+00  0.00000000E+00
  0.00000000E+00  0.00000000E+00  0.00000000E+00
  0.00000000E+00  0.00000000E+00  0.00000000E+00
  0.00000000E+00  0.00000000E+00  0.00000000E+00
  0.00000000E+00  0.00000000E+00  0.00000000E+00
  0.00000000E+00  0.00000000E+00  0.00000000E+00
  0.00000000E+00  0.00000000E+00  0.00000000E+00
  0.00000000E+00  0.00000000E+00  0.00000000E+00
  0.00000000E+00  0.00000000E+00  0.00000000E+00
  0.00000000E+00  0.00000000E+00  0.00000000E+00
  0.00000000E+00  0.00000000E+00  0.00000000E+00
  0.00000000E+00  0.00000000E+00  0.00000000E+00
  0.00000000E+00  0.00000000E+00  0.00000000E+00
  0.00000000E+00  0.00000000E+00  0.00000000E+00
  0.00000000E+00  0.00000000E+00  0.00000000E+00
  0.00000000E+00  0.00000000E+00  0.00000000E+00
  0.00000000E+00  0.00000000E+00  0.00000000E+00
  0.00000000E+00  0.00000000E+00  0.00000000E+00
  0.00000000E+00  0.00000000E+00  0.00000000E+00
  0.00000000E+00  0.00000000E+00  0.00000000E+00
  0.00000000E+00  0.00000000E+00  0.00000000E+00
  0.00000000E+00  0.00000000E+00  0.00000000E+00
  0.00000000E+00  0.00000000E+00  0.00000000E+00
  0.00000000E+00  0.00000000E+00  0.00000000E+00
  0.00000000E+00  0.00000000E+00  0.00000000E+00
  0.00000000E+00  0.00000000E+00  0.00000000E+00
  0.00000000E+00  0.00000000E+00  0.00000000E+00
  0.00000000E+00  0.00000000E+00  0.00000000E+00
  0.00000000E+00  0.00000000E+00  0.00000000E+00
  0.00000000E+00  0.00000000E+00  0.00000000E+00
  0.00000000E+00  0.00000000E+00  0.00000000E+00
  0.00000000E+00  0.00000000E+00  0.00000000E+00
  0.00000000E+00  0.00000000E+00  0.00000000E+00
  0.00000000E+00  0.00000000E+00  0.00000000E+00
  0.00000000E+00  0.00000000E+00  0.00000000E+00
  0.00000000E+00  0.00000000E+00  0.00000000E+00
  0.00000000E+00  0.00000000E+00  0.00000000E+00
  0.00000000E+00  0.00000000E+00  0.00000000E+00
  0.00000000E+00  0.00000000E+00  0.00000000E+00
  0.00000000E+00  0.00000000E+00  0.00000000E+00
  0.00000000E+00  0.00000000E+00  0.00000000E+00
  0.00000000E+00  0.00000000E+00  0.00000000E+00
  0.00000000E+00  0.00000000E+00  0.00000000E+00
  0.00000000E+00  0.00000000E+00  0.00000000E+00
  0.00000000E+00  0.00000000E+00  0.00000000E+00
  0.00000000E+00  0.00000000E+00  0.00000000E+00
  0.00000000E+00  0.00000000E+00  0.00000000E+00
  0.00000000E+00  0.00000000E+00  0.00000000E+00
  0.00000000E+00  0.00000000E+00  0.00000000E+00
  0.00000000E+00  0.00000000E+00  0.00000000E+00
  0.00000000E+00  0.00000000E+00  0.00000000E+00
  0.00000000E+00  0.00000000E+00  0.00000000E+00
  0.00000000E+00  0.00000000E+00  0.00000000E+00
  0.00000000E+00  0.00000000E+00  0.00000000E+00
  0.00000000E+00  0.00000000E+00  0.00000000E+00
  0.00000000E+00  0.00000000E+00  0.00000000E+00
  0.00000000E+00  0.00000000E+00  0.00000000E+00
  0.00000000E+00  0.00000000E+00  0.00000000E+00
  0.00000000E+00  0.00000000E+00  0.00000000E+00
  0.00000000E+00  0.00000000E+00  0.00000000E+00
  0.00000000E+00  0.00000000E+00  0.00000000E+00
  0.00000000E+00  0.00000000E+00  0.00000000E+00
  0.00000000E+00  0.00000000E+00  0.00000000E+00
  0.00000000E+00  0.00000000E+00  0.00000000E+00
  0.00000000E+00  0.00000000E+00  0.00000000E+00
  0.00000000E+00  0.00000000E+00  0.00000000E+00
  0.00000000E+00  0.00000000E+00  0.00000000E+00
  0.00000000E+00  0.00000000E+00  0.00000000E+00
  0.00000000E+00  0.00000000E+00  0.00000000E+00
  0.00000000E+00  0.00000000E+00  0.00000000E+00
  0.00000000E+00  0.00000000E+00  0.00000000E+00
  0.00000000E+00  0.00000000E+00  0.00000000E+00
  0.00000000E+00  0.00000000E+00  0.00000000E+00
  0.00000000E+00  0.00000000E+00  0.00000000E+00
  0.00000000E+00  0.00000000E+00  0.00000000E+00
  0.00000000E+00  0.00000000E+00  0.00000000E+00
  0.00000000E+00  0.00000000E+00  0.00000000E+00
  0.00000000E+00  0.00000000E+00  0.00000000E+00
  0.00000000E+00  0.00000000E+00  0.00000000E+00
  0.00000000E+00  0.00000000E+00  0.00000000E+00
  0.00000000E+00  0.00000000E+00  0.00000000E+00
  0.00000000E+00  0.00000000E+00  0.00000000E+00
  0.00000000E+00  0.00000000E+00  0.00000000E+00
  0.00000000E+00  0.00000000E+00  0.00000000E+00
  0.00000000E+00  0.00000000E+00  0.00000000E+00
  0.00000000E+00  0.00000000E+00  0.00000000E+00
  0.00000000E+00  0.00000000E+00  0.00000000E+00
  0.00000000E+00  0.00000000E+00  0.00000000E+00
  0.00000000E+00  0.00000000E+00  0.00000000E+00
  0.00000000E+00  0.00000000E+00  0.00000000E+00
  0.00000000E+00  0.00000000E+00  0.00000000E+00
  0.00000000E+00  0.00000000E+00  0.00000000E+00
  0.00000000E+00  0.00000000E+00  0.00000000E+00
  0.00000000E+00  0.00000000E+00  0.00000000E+00
  0.00000000E+00  0.00000000E+00  0.00000000E+00
  0.00000000E+00  0.00000000E+00  0.00000000E+00
  0.00000000E+00  0.00000000E+00  0.00000000E+00
  0.00000000E+00  0.00000000E+00  0.00000000E+00
  0.00000000E+00  0.00000000E+00  0.00000000E+00
  0.00000000E+00  0.00000000E+00  0.00000000E+00
  0.00000000E+00  0.00000000E+00  0.00000000E+00
  0.00000000E+00  0.00000000E+00  0.00000000E+00
  0.00000000E+00  0.00000000E+00  0.00000000E+00
  0.00000000E+00  0.00000000E+00  0.00000000E+00
  0.00000000E+00  0.00000000E+00  0.00000000E+00
  0.00000000E+00  0.00000000E+00  0.00000000E+00
  0.00000000E+00  0.00000000E+00  0.00000000E+00
  0.00000000E+00  0.00000000E+00  0.00000000E+00
  0.00000000E+00  0.00000000E+00  0.00000000E+00
  0.00000000E+00  0.00000000E+00  0.00000000E+00
  0.00000000E+00  0.00000000E+00  0.00000000E+00
  0.00000000E+00  0.00000000E+00  0.00000000E+00
  0.00000000E+00  0.00000000E+00  0.00000000E+00
  0.00000000E+00  0.00000000E+00  0.00000000E+00
  0.00000000E+00  0.00000000E+00  0.00000000E+00
  0.00000000E+00  0.00000000E+00  0.00000000E+00
  0.00000000E+00  0.00000000E+00  0.00000000E+00
  0.00000000E+00  0.00000000E+00  0.00000000E+00