Si                                      
   1.00000000000000     
    16.4117625311398250    0.0000347833292740    0.0000000000000000
     0.0000347833292740   16.4117625311398250    0.0000000000000000
     0.0000000000000000    0.0000000000000000   16.4117624058248701
   Si
   216
Direct
 -0.0000000000000000 -0.0000000000000000  0.0000610783243720
  0.1666664800649954  0.1666664800649954 -0.0000012262055288
  0.1666673141760467  0.0000003053226082  0.1666673119689067
  0.0000003053226082  0.1666673141760467  0.1666673119689067
  0.0833397918113968  0.0833397918113968  0.0833427667113114
  0.2499998506271134  0.2499998506271134  0.0833337293627181
  0.2500000651469602  0.0833330542588117  0.2500000605297237
  0.0833330542588117  0.2500000651469602  0.2500000605297237
 -0.0000000000000000 -0.0000000000000000  0.3333332419614977
  0.1666667892595417  0.1666667892595417  0.3333332277584085
  0.1666667640962853 -0.0000000183204508  0.4999999997850521
 -0.0000000183204508  0.1666667640962853  0.4999999997850521
  0.0833332178520632  0.0833332178520632  0.4166667696033111
  0.2499999886488096  0.2499999886488096  0.4166667723880096
  0.2500000074211436  0.0833332566990112  0.5833332177914318
  0.0833332566990112  0.2500000074211436  0.5833332177914318
 -0.0000000000000000 -0.0000000000000000  0.6666667695435322
  0.1666667502834124  0.1666667502834124  0.6666667782917413
  0.1666662538678456  0.0000003004686106  0.8333337494224710
  0.0000003004686106  0.1666662538678456  0.8333337494224710
  0.0833333155874207  0.0833333155874207  0.7499999798312729
  0.2500000003336738  0.2500000003336738  0.7499999783519159
  0.2500000975923694  0.0833331034752890  0.9166666667810781
  0.0833331034752890  0.2500000975923694  0.9166666667810781
 -0.0000000001620967  0.3333332251308981  0.0000000656937395
  0.1666667839519822  0.5000000076043750  0.0000000366091718
  0.1666667220885571  0.3333332610130371  0.1666668106245630
 -0.0000000000000000  0.5000000000000000  0.1666668123663667
  0.0833332255283109  0.4166667854892400  0.0833331701582933
  0.2500000248168954  0.5833332490709393  0.0833331936567241
  0.2500000664170570  0.4166667703689674  0.2499999976354409
  0.0833332505601263  0.5833332310714439  0.2500000199976004
  0.0000000574609134  0.3333332716991335  0.3333332369921947
  0.1666667333634103  0.4999999988237528  0.3333332223639000
  0.1666667801630716  0.3333332294899017  0.4999999808281758
 -0.0000000000000000  0.5000000000000000  0.5000000084756576
  0.0833332200438104  0.4166667834356035  0.4166667826305276
  0.2500000185017373  0.5833332016192038  0.4166667613847685
  0.2499999863205057  0.4166667585075388  0.5833332043800156
  0.0833332250871147  0.5833332235281103  0.5833332430285451
  0.0000000512750125  0.3333331848616977  0.6666668016321549
  0.1666668200913214  0.5000000006958968  0.6666667809246245
  0.1666668459805011  0.3333332103333929  0.8333332648653545
 -0.0000000000000000  0.5000000000000000  0.8333332516171978
  0.0833331932553486  0.4166667907644609  0.7500000125412674
  0.2499999313487073  0.5833332091377433  0.7500000019354138
  0.2499999760786503  0.4166668128585135  0.9166667509630636
  0.0833332233820589  0.5833332294992790  0.9166667261019159
  0.0000000001620967  0.6666667748691020  0.0000000656937395
  0.1666670872540420  0.8333329127459580 -0.0000012271087724
  0.1666667110067532  0.6666667636352501  0.1666668213532773
 -0.0000003053226082  0.8333326858239533  0.1666673119689067
  0.0833333382739025  0.7500000820556348  0.0833331184244834
  0.2499999179443652  0.9166666617260976  0.0833331184244834
  0.2500000012923594  0.7499999987076407  0.2499999820068676
  0.0833331317694378  0.9166668682305622  0.2499999986872732
 -0.0000000574609134  0.6666667283008665  0.3333332369921947
  0.1666668079897713  0.8333331920102287  0.3333332193373828
  0.1666667936740739  0.6666667834384863  0.4999999864929068
  0.0000000183204508  0.8333332359037147  0.4999999997850521
  0.0833331954472279  0.7500000065161605  0.4166667622115240
  0.2499999934838396  0.9166668045527722  0.4166667622115240
  0.2500000151921795  0.7499999848078205  0.5833332120572664
  0.0833332112702061  0.9166667887297939  0.5833332162318220
 -0.0000000512750125  0.6666668151383023  0.6666668016321549
  0.1666667693870992  0.8333332306129008  0.6666667712302833
  0.1666668422872177  0.6666668051491998  0.8333332534836291
 -0.0000003004686106  0.8333337461321544  0.8333337494224710
  0.0833333827523002  0.7500000548040640  0.7500000568499857
  0.2499999451959360  0.9166666172476998  0.7500000568499857
  0.2500001602134576  0.7499998397865424  0.9166672846785803
  0.0833266861007718  0.9166733138992282  0.9166762920459745
  0.3333332251308981 -0.0000000001620967  0.0000000656937395
  0.5000000076043750  0.1666667839519822  0.0000000366091718
  0.5000000000000000 -0.0000000000000000  0.1666668123663667
  0.3333332610130371  0.1666667220885571  0.1666668106245630
  0.4166667854892400  0.0833332255283109  0.0833331701582933
  0.5833332490709393  0.2500000248168954  0.0833331936567241
  0.5833332310714439  0.0833332505601263  0.2500000199976004
  0.4166667703689674  0.2500000664170570  0.2499999976354409
  0.3333332716991335  0.0000000574609134  0.3333332369921947
  0.4999999988237528  0.1666667333634103  0.3333332223639000
  0.5000000000000000 -0.0000000000000000  0.5000000084756576
  0.3333332294899017  0.1666667801630716  0.4999999808281758
  0.4166667834356035  0.0833332200438104  0.4166667826305276
  0.5833332016192038  0.2500000185017373  0.4166667613847685
  0.5833332235281103  0.0833332250871147  0.5833332430285451
  0.4166667585075388  0.2499999863205057  0.5833332043800156
  0.3333331848616977  0.0000000512750125  0.6666668016321549
  0.5000000006958968  0.1666668200913214  0.6666667809246245
  0.5000000000000000 -0.0000000000000000  0.8333332516171978
  0.3333332103333929  0.1666668459805011  0.8333332648653545
  0.4166667907644609  0.0833331932553486  0.7500000125412674
  0.5833332091377433  0.2499999313487073  0.7500000019354138
  0.5833332294992790  0.0833332233820589  0.9166667261019159
  0.4166668128585135  0.2499999760786503  0.9166667509630636
  0.3333331609073173  0.3333331609073173 -0.0000002984027513
  0.5000000000000000  0.5000000000000000 -0.0000002807650327
  0.5000000042289213  0.3333331757272051  0.1666667888283040
  0.3333331757272051  0.5000000042289213  0.1666667888283040
  0.4166667722131868  0.4166667722131868  0.0833334025578042
  0.5833332277868133  0.5833332277868133  0.0833334025578042
  0.5833332078582419  0.4166667921417580  0.2500000048544180
  0.4166667921417580  0.5833332078582419  0.2500000048544180
  0.3333332090517483  0.3333332090517483  0.3333332349285539
  0.5000000000000000  0.5000000000000000  0.3333332252689444
  0.5000000157716289  0.3333332251198579  0.5000000017662481
  0.3333332251198579  0.5000000157716289  0.5000000017662481
  0.4166667893856833  0.4166667893856833  0.4166667733331592
  0.5833332106143166  0.5833332106143166  0.4166667733331592
  0.5833332280125246  0.4166667719874754  0.5833332196208071
  0.4166667719874754  0.5833332280125246  0.5833332196208071
  0.3333332317303903  0.3333332317303903  0.6666667950828944
  0.5000000000000000  0.5000000000000000  0.6666667687177922
  0.5000000073814318  0.3333332567288725  0.8333332331763177
  0.3333332567288725  0.5000000073814318  0.8333332331763177
  0.4166667626419260  0.4166667626419260  0.7499999964068603
  0.5833332373580740  0.5833332373580740  0.7499999964068603
  0.5833332192285680  0.4166667807714321  0.9166669608976190
  0.4166667807714321  0.5833332192285680  0.9166669608976190
  0.3333332845310717  0.6666667154689282 -0.0000003045140286
  0.4999999923956250  0.8333332160480178  0.0000000366091718
  0.4999999957710787  0.6666668242727949  0.1666667888283040
  0.3333332363647498  0.8333332889932469  0.1666668213532773
  0.4166667509290606  0.7499999751831047  0.0833331936567241
  0.5833332145107600  0.9166667744716891  0.0833331701582933
  0.5833332296310325  0.7499999335829430  0.2499999976354409
  0.4166667689285563  0.9166667494398737  0.2500000199976004
  0.3333332136874206  0.6666667863125794  0.3333332423384825
  0.5000000011762472  0.8333332666365898  0.3333332223639000
  0.4999999842283712  0.6666667748801421  0.5000000017662481
  0.3333332165615137  0.8333332063259261  0.4999999864929068
  0.4166667983807963  0.7499999814982629  0.4166667613847685
  0.5833332165643964  0.9166667799561896  0.4166667826305276
  0.5833332414924612  0.7500000136794943  0.5833332043800156
  0.4166667764718896  0.9166667749128854  0.5833332430285451
  0.3333332355914195  0.6666667644085805  0.6666667860259817
  0.4999999993041031  0.8333331799086786  0.6666667809246245
  0.4999999926185682  0.6666667432711274  0.8333332331763177
  0.3333331948508000  0.8333331577127824  0.8333332534836291
  0.4166667908622568  0.7500000686512928  0.7500000019354138
  0.5833332092355390  0.9166668067446514  0.7500000125412674
  0.5833331871414864  0.7500000239213497  0.9166667509630636
  0.4166667705007210  0.9166667766179412  0.9166667261019159
  0.6666667748691020  0.0000000001620967  0.0000000656937395
  0.8333329127459580  0.1666670872540420 -0.0000012271087724
  0.8333326858239533 -0.0000003053226082  0.1666673119689067
  0.6666667636352501  0.1666667110067532  0.1666668213532773
  0.7500000820556348  0.0833333382739025  0.0833331184244834
  0.9166666617260976  0.2499999179443652  0.0833331184244834
  0.9166668682305622  0.0833331317694378  0.2499999986872732
  0.7499999987076407  0.2500000012923594  0.2499999820068676
  0.6666667283008665 -0.0000000574609134  0.3333332369921947
  0.8333331920102287  0.1666668079897713  0.3333332193373828
  0.8333332359037147  0.0000000183204508  0.4999999997850521
  0.6666667834384863  0.1666667936740739  0.4999999864929068
  0.7500000065161605  0.0833331954472279  0.4166667622115240
  0.9166668045527722  0.2499999934838396  0.4166667622115240
  0.9166667887297939  0.0833332112702061  0.5833332162318220
  0.7499999848078205  0.2500000151921795  0.5833332120572664
  0.6666668151383023 -0.0000000512750125  0.6666668016321549
  0.8333332306129008  0.1666667693870992  0.6666667712302833
  0.8333337461321544 -0.0000003004686106  0.8333337494224710
  0.6666668051491998  0.1666668422872177  0.8333332534836291
  0.7500000548040640  0.0833333827523002  0.7500000568499857
  0.9166666172476998  0.2499999451959360  0.7500000568499857
  0.9166733138992282  0.0833266861007718  0.9166762920459745
  0.7499998397865424  0.2500001602134576  0.9166672846785803
  0.6666667154689282  0.3333332845310717 -0.0000003045140286
  0.8333332160480178  0.4999999923956250  0.0000000366091718
  0.8333332889932469  0.3333332363647498  0.1666668213532773
  0.6666668242727949  0.4999999957710787  0.1666667888283040
  0.7499999751831047  0.4166667509290606  0.0833331936567241
  0.9166667744716891  0.5833332145107600  0.0833331701582933
  0.9166667494398737  0.4166667689285563  0.2500000199976004
  0.7499999335829430  0.5833332296310325  0.2499999976354409
  0.6666667863125794  0.3333332136874206  0.3333332423384825
  0.8333332666365898  0.5000000011762472  0.3333332223639000
  0.8333332063259261  0.3333332165615137  0.4999999864929068
  0.6666667748801421  0.4999999842283712  0.5000000017662481
  0.7499999814982629  0.4166667983807963  0.4166667613847685
  0.9166667799561896  0.5833332165643964  0.4166667826305276
  0.9166667749128854  0.4166667764718896  0.5833332430285451
  0.7500000136794943  0.5833332414924612  0.5833332043800156
  0.6666667644085805  0.3333332355914195  0.6666667860259817
  0.8333331799086786  0.4999999993041031  0.6666667809246245
  0.8333331577127824  0.3333331948508000  0.8333332534836291
  0.6666667432711274  0.4999999926185682  0.8333332331763177
  0.7500000686512928  0.4166667908622568  0.7500000019354138
  0.9166668067446514  0.5833332092355390  0.7500000125412674
  0.9166667766179412  0.4166667705007210  0.9166667261019159
  0.7500000239213497  0.5833331871414864  0.9166667509630636
  0.6666668390926827  0.6666668390926827 -0.0000002984027513
  0.8333335199350047  0.8333335199350047 -0.0000012262055288
  0.8333332779114428  0.6666667389869629  0.1666668106245630
  0.6666667389869629  0.8333332779114428  0.1666668106245630
  0.7500001493728866  0.7500001493728866  0.0833337293627181
  0.9166602081886032  0.9166602081886032  0.0833427667113114
  0.9166669457411883  0.7499999348530398  0.2500000605297237
  0.7499999348530398  0.9166669457411883  0.2500000605297237
  0.6666667909482517  0.6666667909482517  0.3333332349285539
  0.8333332107404583  0.8333332107404583  0.3333332277584085
  0.8333332198369283  0.6666667705100984  0.4999999808281758
  0.6666667705100984  0.8333332198369283  0.4999999808281758
  0.7500000113511904  0.7500000113511904  0.4166667723880096
  0.9166667821479370  0.9166667821479370  0.4166667696033111
  0.9166667433009889  0.7499999925788565  0.5833332177914318
  0.7499999925788565  0.9166667433009889  0.5833332177914318
  0.6666667682696097  0.6666667682696097  0.6666667950828944
  0.8333332497165876  0.8333332497165876  0.6666667782917413
  0.8333331540194989  0.6666667896666071  0.8333332648653545
  0.6666667896666071  0.8333331540194989  0.8333332648653545
  0.7499999996663261  0.7499999996663261  0.7499999783519159
  0.9166666844125793  0.9166666844125793  0.7499999798312729
  0.9166668965247109  0.7499999024076307  0.9166666667810781
  0.7499999024076307  0.9166668965247109  0.9166666667810781
 
  0.00000000E+00  0.00000000E+00  0.00000000E+00
  0.00000000E+00  0.00000000E+00  0.00000000E+00
  0.00000000E+00  0.00000000E+00  0.00000000E+00
  0.00000000E+00  0.00000000E+00  0.00000000E+00
  0.00000000E+00  0.00000000E+00  0.00000000E+00
  0.00000000E+00  0.00000000E+00  0.00000000E+00
  0.00000000E+00  0.00000000E+00  0.00000000E+00
  0.00000000E+00  0.00000000E+00  0.00000000E+00
  0.00000000E+00  0.00000000E+00  0.00000000E+00
  0.00000000E+00  0.00000000E+00  0.00000000E+00
  0.00000000E+00  0.00000000E+00  0.00000000E+00
  0.00000000E+00  0.00000000E+00  0.00000000E+00
  0.00000000E+00  0.00000000E+00  0.00000000E+00
  0.00000000E+00  0.00000000E+00  0.00000000E+00
  0.00000000E+00  0.00000000E+00  0.00000000E+00
  0.00000000E+00  0.00000000E+00  0.00000000E+00
  0.00000000E+00  0.00000000E+00  0.00000000E+00
  0.00000000E+00  0.00000000E+00  0.00000000E+00
  0.00000000E+00  0.00000000E+00  0.00000000E+00
  0.00000000E+00  0.00000000E+00  0.00000000E+00
  0.00000000E+00  0.00000000E+00  0.00000000E+00
  0.00000000E+00  0.00000000E+00  0.00000000E+00
  0.00000000E+00  0.00000000E+00  0.00000000E+00
  0.00000000E+00  0.00000000E+00  0.00000000E+00
  0.00000000E+00  0.00000000E+00  0.00000000E+00
  0.00000000E+00  0.00000000E+00  0.00000000E+00
  0.00000000E+00  0.00000000E+00  0.00000000E+00
  0.00000000E+00  0.00000000E+00  0.00000000E+00
  0.00000000E+00  0.00000000E+00  0.00000000E+00
  0.00000000E+00  0.00000000E+00  0.00000000E+00
  0.00000000E+00  0.00000000E+00  0.00000000E+00
  0.00000000E+00  0.00000000E+00  0.00000000E+00
  0.00000000E+00  0.00000000E+00  0.00000000E+00
  0.00000000E+00  0.00000000E+00  0.00000000E+00
  0.00000000E+00  0.00000000E+00  0.00000000E+00
  0.00000000E+00  0.00000000E+00  0.00000000E+00
  0.00000000E+00  0.00000000E+00  0.00000000E+00
  0.00000000E+00  0.00000000E+00  0.00000000E+00
  0.00000000E+00  0.00000000E+00  0.00000000E+00
  0.00000000E+00  0.00000000E+00  0.00000000E+00
  0.00000000E+00  0.00000000E+00  0.00000000E+00
  0.00000000E+00  0.00000000E+00  0.00000000E+00
  0.00000000E+00  0.00000000E+00  0.00000000E+00
  0.00000000E+00  0.00000000E+00  0.00000000E+00
  0.00000000E+00  0.00000000E+00  0.00000000E+00
  0.00000000E+00  0.00000000E+00  0.00000000E+00
  0.00000000E+00  0.00000000E+00  0.00000000E+00
  0.00000000E+00  0.00000000E+00  0.00000000E+00
  0.00000000E+00  0.00000000E+00  0.00000000E+00
  0.00000000E+00  0.00000000E+00  0.00000000E+00
  0.00000000E+00  0.00000000E+00  0.00000000E+00
  0.00000000E+00  0.00000000E+00  0.00000000E+00
  0.00000000E+00  0.00000000E+00  0.00000000E+00
  0.00000000E+00  0.00000000E+00  0.00000000E+00
  0.00000000E+00  0.00000000E+00  0.00000000E+00
  0.00000000E+00  0.00000000E+00  0.00000000E+00
  0.00000000E+00  0.00000000E+00  0.00000000E+00
  0.00000000E+00  0.00000000E+00  0.00000000E+00
  0.00000000E+00  0.00000000E+00  0.00000000E+00
  0.00000000E+00  0.00000000E+00  0.00000000E+00
  0.00000000E+00  0.00000000E+00  0.00000000E+00
  0.00000000E+00  0.00000000E+00  0.00000000E+00
  0.00000000E+00  0.00000000E+00  0.00000000E+00
  0.00000000E+00  0.00000000E+00  0.00000000E+00
  0.00000000E+00  0.00000000E+00  0.00000000E+00
  0.00000000E+00  0.00000000E+00  0.00000000E+00
  0.00000000E+00  0.00000000E+00  0.00000000E+00
  0.00000000E+00  0.00000000E+00  0.00000000E+00
  0.00000000E+00  0.00000000E+00  0.00000000E+00
  0.00000000E+00  0.00000000E+00  0.00000000E+00
  0.00000000E+00  0.00000000E+00  0.00000000E+00
  0.00000000E+00  0.00000000E+00  0.00000000E+00
  0.00000000E+00  0.00000000E+00  0.00000000E+00
  0.00000000E+00  0.00000000E+00  0.00000000E+00
  0.00000000E+00  0.00000000E+00  0.00000000E+00
  0.00000000E+00  0.00000000E+00  0.00000000E+00
  0.00000000E+00  0.00000000E+00  0.00000000E+00
  0.00000000E+00  0.00000000E+00  0.00000000E+00
  0.00000000E+00  0.00000000E+00  0.00000000E+00
  0.00000000E+00  0.00000000E+00  0.00000000E+00
  0.00000000E+00  0.00000000E+00  0.00000000E+00
  0.00000000E+00  0.00000000E+00  0.00000000E+00
  0.00000000E+00  0.00000000E+00  0.00000000E+00
  0.00000000E+00  0.00000000E+00  0.00000000E+00
  0.00000000E+00  0.00000000E+00  0.00000000E+00
  0.00000000E+00  0.00000000E+00  0.00000000E+00
  0.00000000E+00  0.00000000E+00  0.00000000E+00
  0.00000000E+00  0.00000000E+00  0.00000000E+00
  0.00000000E+00  0.00000000E+00  0.00000000E+00
  0.00000000E+00  0.00000000E+00  0.00000000E+00
  0.00000000E+00  0.00000000E+00  0.00000000E+00
  0.00000000E+00  0.00000000E+00  0.00000000E+00
  0.00000000E+00  0.00000000E+00  0.00000000E+00
  0.00000000E+00  0.00000000E+00  0.00000000E+00
  0.00000000E+00  0.00000000E+00  0.00000000E+00
  0.00000000E+00  0.00000000E+00  0.00000000E+00
  0.00000000E+00  0.00000000E+00  0.00000000E+00
  0.00000000E+00  0.00000000E+00  0.00000000E+00
  0.00000000E+00  0.00000000E+00  0.00000000E+00
  0.00000000E+00  0.00000000E+00  0.00000000E+00
  0.00000000E+00  0.00000000E+00  0.00000000E+00
  0.00000000E+00  0.00000000E+00  0.00000000E+00
  0.00000000E+00  0.00000000E+00  0.00000000E+00
  0.00000000E+00  0.00000000E+00  0.00000000E+00
  0.00000000E+00  0.00000000E+00  0.00000000E+00
  0.00000000E+00  0.00000000E+00  0.00000000E+00
  0.00000000E+00  0.00000000E+00  0.00000000E+00
  0.00000000E+00  0.00000000E+00  0.00000000E+00
  0.00000000E+00  0.00000000E+00  0.00000000E+00
  0.00000000E+00  0.00000000E+00  0.00000000E+00
  0.00000000E+00  0.00000000E+00  0.00000000E+00
  0.00000000E+00  0.00000000E+00  0.00000000E+00
  0.00000000E+00  0.00000000E+00  0.00000000E+00
  0.00000000E+00  0.00000000E+00  0.00000000E+00
  0.00000000E+00  0.00000000E+00  0.00000000E+00
  0.00000000E+00  0.00000000E+00  0.00000000E+00
  0.00000000E+00  0.00000000E+00  0.00000000E+00
  0.00000000E+00  0.00000000E+00  0.00000000E+00
  0.00000000E+00  0.00000000E+00  0.00000000E+00
  0.00000000E+00  0.00000000E+00  0.00000000E+00
  0.00000000E+00  0.00000000E+00  0.00000000E+00
  0.00000000E+00  0.00000000E+00  0.00000000E+00
  0.00000000E+00  0.00000000E+00  0.00000000E+00
  0.00000000E+00  0.00000000E+00  0.00000000E+00
  0.00000000E+00  0.00000000E+00  0.00000000E+00
  0.00000000E+00  0.00000000E+00  0.00000000E+00
  0.00000000E+00  0.00000000E+00  0.00000000E+00
  0.00000000E+00  0.00000000E+00  0.00000000E+00
  0.00000000E+00  0.00000000E+00  0.00000000E+00
  0.00000000E+00  0.00000000E+00  0.00000000E+00
  0.00000000E+00  0.00000000E+00  0.00000000E+00
  0.00000000E+00  0.00000000E+00  0.00000000E+00
  0.00000000E+00  0.00000000E+00  0.00000000E+00
  0.00000000E+00  0.00000000E+00  0.00000000E+00
  0.00000000E+00  0.00000000E+00  0.00000000E+00
  0.00000000E+00  0.00000000E+00  0.00000000E+00
  0.00000000E+00  0.00000000E+00  0.00000000E+00
  0.00000000E+00  0.00000000E+00  0.00000000E+00
  0.00000000E+00  0.00000000E+00  0.00000000E+00
  0.00000000E+00  0.00000000E+00  0.00000000E+00
  0.00000000E+00  0.00000000E+00  0.00000000E+00
  0.00000000E+00  0.00000000E+00  0.00000000E+00
  0.00000000E+00  0.00000000E+00  0.00000000E+00
  0.00000000E+00  0.00000000E+00  0.00000000E+00
  0.00000000E+00  0.00000000E+00  0.00000000E+00
  0.00000000E+00  0.00000000E+00  0.00000000E+00
  0.00000000E+00  0.00000000E+00  0.00000000E+00
  0.00000000E+00  0.00000000E+00  0.00000000E+00
  0.00000000E+00  0.00000000E+00  0.00000000E+00
  0.00000000E+00  0.00000000E+00  0.00000000E+00
  0.00000000E+00  0.00000000E+00  0.00000000E+00
  0.00000000E+00  0.00000000E+00  0.00000000E+00
  0.00000000E+00  0.00000000E+00  0.00000000E+00
  0.00000000E+00  0.00000000E+00  0.00000000E+00
  0.00000000E+00  0.00000000E+00  0.00000000E+00
  0.00000000E+00  0.00000000E+00  0.00000000E+00
  0.00000000E+00  0.00000000E+00  0.00000000E+00
  0.00000000E+00  0.00000000E+00  0.00000000E+00
  0.00000000E+00  0.00000000E+00  0.00000000E+00
  0.00000000E+00  0.00000000E+00  0.00000000E+00
  0.00000000E+00  0.00000000E+00  0.00000000E+00
  0.00000000E+00  0.00000000E+00  0.00000000E+00
  0.00000000E+00  0.00000000E+00  0.00000000E+00
  0.00000000E+00  0.00000000E+00  0.00000000E+00
  0.00000000E+00  0.00000000E+00  0.00000000E+00
  0.00000000E+00  0.00000000E+00  0.00000000E+00
  0.00000000E+00  0.00000000E+00  0.00000000E+00
  0.00000000E+00  0.00000000E+00  0.00000000E+00
  0.00000000E+00  0.00000000E+00  0.00000000E+00
  0.00000000E+00  0.00000000E+00  0.00000000E+00
  0.00000000E+00  0.00000000E+00  0.00000000E+00
  0.00000000E+00  0.00000000E+00  0.00000000E+00
  0.00000000E+00  0.00000000E+00  0.00000000E+00
  0.00000000E+00  0.00000000E+00  0.00000000E+00
  0.00000000E+00  0.00000000E+00  0.00000000E+00
  0.00000000E+00  0.00000000E+00  0.00000000E+00
  0.00000000E+00  0.00000000E+00  0.00000000E+00
  0.00000000E+00  0.00000000E+00  0.00000000E+00
  0.00000000E+00  0.00000000E+00  0.00000000E+00
  0.00000000E+00  0.00000000E+00  0.00000000E+00
  0.00000000E+00  0.00000000E+00  0.00000000E+00
  0.00000000E+00  0.00000000E+00  0.00000000E+00
  0.00000000E+00  0.00000000E+00  0.00000000E+00
  0.00000000E+00  0.00000000E+00  0.00000000E+00
  0.00000000E+00  0.00000000E+00  0.00000000E+00
  0.00000000E+00  0.00000000E+00  0.00000000E+00
  0.00000000E+00  0.00000000E+00  0.00000000E+00
  0.00000000E+00  0.00000000E+00  0.00000000E+00
  0.00000000E+00  0.00000000E+00  0.00000000E+00
  0.00000000E+00  0.00000000E+00  0.00000000E+00
  0.00000000E+00  0.00000000E+00  0.00000000E+00
  0.00000000E+00  0.00000000E+00  0.00000000E+00
  0.00000000E+00  0.00000000E+00  0.00000000E+00
  0.00000000E+00  0.00000000E+00  0.00000000E+00
  0.00000000E+00  0.00000000E+00  0.00000000E+00
  0.00000000E+00  0.00000000E+00  0.00000000E+00
  0.00000000E+00  0.00000000E+00  0.00000000E+00
  0.00000000E+00  0.00000000E+00  0.00000000E+00
  0.00000000E+00  0.00000000E+00  0.00000000E+00
  0.00000000E+00  0.00000000E+00  0.00000000E+00
  0.00000000E+00  0.00000000E+00  0.00000000E+00
  0.00000000E+00  0.00000000E+00  0.00000000E+00
  0.00000000E+00  0.00000000E+00  0.00000000E+00
  0.00000000E+00  0.00000000E+00  0.00000000E+00
  0.00000000E+00  0.00000000E+00  0.00000000E+00
  0.00000000E+00  0.00000000E+00  0.00000000E+00
  0.00000000E+00  0.00000000E+00  0.00000000E+00
  0.00000000E+00  0.00000000E+00  0.00000000E+00
  0.00000000E+00  0.00000000E+00  0.00000000E+00
  0.00000000E+00  0.00000000E+00  0.00000000E+00
  0.00000000E+00  0.00000000E+00  0.00000000E+00
  0.00000000E+00  0.00000000E+00  0.00000000E+00
  0.00000000E+00  0.00000000E+00  0.00000000E+00
  0.00000000E+00  0.00000000E+00  0.00000000E+00
  0.00000000E+00  0.00000000E+00  0.00000000E+00
  0.00000000E+00  0.00000000E+00  0.00000000E+00
