SiVH3                                   
   1.00000000000000     
    16.4117625311398250    0.0000347833292740    0.0000000000000000
     0.0000347833292740   16.4117625311398250    0.0000000000000000
     0.0000000000000000    0.0000000000000000   16.4117624058248701
   Si   H 
   215     3
Direct
  0.0023643132898741  0.0031351985535082  0.0027124998532813
  0.1690083173102650  0.1697796364897712  0.0023727054841132
  0.1688689695025545  0.0030533191125031  0.1691977983044382
  0.0022854023260876  0.1696403802660100  0.1691994866164492
  0.0857242768965989  0.0864949429530455  0.0859043958956462
  0.2522260550086983  0.2529944735566545  0.0856862718641409
  0.2523149158083768  0.0862052861988047  0.2524875087201721
  0.0854388995871389  0.2530845898907614  0.2524901441432803
  0.0024378893021719  0.0032084023653667  0.3358347059515481
  0.1688628655431472  0.1696291179231011  0.3358005173055432
  0.1692300805540441  0.0034296618776253  0.5026402137918424
  0.0026623693900376  0.1700042081294626  0.5026382821341642
  0.0856576003297320  0.0864274915353107  0.4192474315316801
  0.2520867000866005  0.2528484875808346  0.4191951888912513
  0.2527153647089477  0.0868418702132914  0.5858352776448115
  0.0860780163024373  0.2534878300865699  0.5858323805636516
  0.0025845551810164  0.0033565015481685  0.6694623672129865
  0.1693785555791720  0.1701481085569014  0.6691706196454064
  0.1690807054444221  0.0033523399554269  0.8359660236037740
  0.0025814363316030  0.1698526730674672  0.8359648223068987
  0.0859428160343398  0.0867138440008475  0.7525996879221566
  0.2527177344976792  0.2534873067100420  0.7524752327405295
  0.2524654135898814  0.0865781488571216  0.9191322296717885
  0.0858074246021161  0.2532368832009482  0.9191312822377924
  0.0020847720977812  0.3364491304243344  0.0021436513069446
  0.1690188513021482  0.5033535639428806  0.0026277868568343
  0.1672836186917479  0.3363526857258776  0.1676202226254091
  0.0022584538138446  0.5032692232075675  0.1693765242829883
  0.0847319961882960  0.4200521383929612  0.0850216115866758
  0.2524754898136337  0.5867342108201683  0.0858926578415620
  0.2497783427401075  0.4198963730348950  0.2499823218151533
  0.0856857531253112  0.5866302456666475  0.2526862976715520
  0.0023450071057027  0.3365143736591421  0.3359868493460425
  0.1688865787520939  0.5032650409349202  0.3360448904438869
  0.1693559269644496  0.3370377982976720  0.5022840389896075
  0.0023459973917355  0.5033393231878236  0.5028142174005907
  0.0855141976743710  0.4200487910772210  0.4192743977643687
  0.2497796829825347  0.5893180504479432  0.4194143686693792
  0.2520445462476744  0.4201201670880579  0.5865090540059299
  0.0854379290309382  0.5868329278779072  0.5862438411160014
  0.0026625932960869  0.3366865986177672  0.6693125228781511
  0.1688397395727819  0.5035266004552597  0.6697147466954618
  0.1692296590312736  0.3366852665475690  0.8358916364661084
  0.0024245157128817  0.5034929594148139  0.8361234518475484
  0.0856411434462530  0.4200756638642105  0.7529047296233315
  0.2523175562771414  0.5868330720771624  0.7531052872583075
  0.2523987642783183  0.4199448074577177  0.9194065013587291
  0.0856021657195285  0.5867389397424532  0.9195538138331187
  0.0022218923068067  0.6699210804062616  0.0029700196219835
  0.1689849436095372  0.8365808127805039  0.0027419336270142
  0.1691705125912151  0.6699182271813342  0.1694008501833721
  0.0022188876260429  0.8363504219058058  0.1693973171610779
  0.0856878462148529  0.7531885081164020  0.0861274647534387
  0.2523576842263111  0.9199349083582433  0.0858765202775302
  0.2524763280158595  0.7534222038227938  0.2525918652276928
  0.0856016494776952  0.9197699124903380  0.2525869468080089
  0.0022598974288712  0.6699356739114251  0.3360519058345730
  0.1690204879892576  0.8366908029723348  0.3359739858227186
  0.1672899273821145  0.6716836493490064  0.5029680521505426
  0.0020958235398965  0.8371663197794135  0.5028777258599320
  0.0847410322059758  0.7542808667065017  0.4192722337591590
  0.2523993767117432  0.9199188361603206  0.4193829504046391
  0.2522289589440732  0.7536160225631079  0.5863195148530309
  0.0858117236948459  0.9201923412745785  0.5860862375295497
  0.0022809387982221  0.6701192100981430  0.6696808294891028
  0.1690143427511259  0.8369400635780195  0.6695312490709071
  0.1688736275475691  0.6701193708004993  0.8362628918693034
  0.0023644238790581  0.8366134528535341  0.8361911223509253
  0.0857270118930913  0.7534109943686786  0.7528195318909781
  0.2524653228992975  0.9201888906238622  0.7527318545471289
  0.2523550730754565  0.7534386557169128  0.9193892420986813
  0.0857324435450835  0.9199356922370683  0.9193985953942345
  0.3356783466185647  0.0028534340958473  0.0021427131657674
  0.5025848143415246  0.1697889661180838  0.0026262025322907
  0.5025001967150828  0.0030261314406630  0.1693754319788852
  0.3355842122832016  0.1680479955135823  0.1676166147231726
  0.4192847167551150  0.0854986042900592  0.0850182414319818
  0.5859666702774504  0.2532454271323274  0.0858900976718573
  0.5858622990379914  0.0864530684007292  0.2526842165293743
  0.4191293683984867  0.2505406947371398  0.2499783527814259
  0.3357429831402072  0.0031121266282526  0.3359865624397003
  0.5024947728710600  0.1696500638309288  0.3360434104672905
  0.5025706668841963  0.0031127359226417  0.5028156699383501
  0.3362707973305064  0.1701156675051649  0.5022902969983676
  0.4192793219614472  0.0862784383112540  0.4192747575854128
  0.5885407651484584  0.2505475453502015  0.4194145653671413
  0.5860675889633029  0.0862010790430006  0.5862457825727247
  0.4193574589012172  0.2527788374370346  0.5865364440825402
  0.3359144562700820  0.0034281352350973  0.6693172838318233
  0.5027640834872926  0.1695847266713812  0.6697357217776556
  0.5027248463000120  0.0031854477207318  0.8361328452325978
  0.3359151527880755  0.1699989124942789  0.8358931249332571
  0.4193043025215957  0.0863968545653577  0.7529186461991415
  0.5860652890813896  0.2530848695012367  0.7531082490442103
  0.5859711468831605  0.0863719085222954  0.9195542357507875
  0.4191749350936078  0.2531693114283158  0.9194064028760138
  0.3356926049452369  0.3364627276836956  0.0026194250254576
  0.5022867124727881  0.5030555258782456  0.0028043306403163
  0.5023662993930955  0.3362501018721673  0.1690949053646449
  0.3354829203928702  0.5031353903846281  0.1690966882247054
  0.4189343928146414  0.4197034916967439  0.0860820788836349
  0.5852271822405370  0.5859948867188578  0.0868976969038258
  0.5851639193238825  0.4193692777903664  0.2533861633090098
  0.4186014876796591  0.5859339554054728  0.2533877897041066
  0.3309772504329871  0.3317400216207105  0.3280225315229686
  0.5050545850596322  0.5058237113315585  0.3334955734343410
  0.5104402093936642  0.3316821967152705  0.5075800208245553
  0.3309420938540200  0.5112245821896124  0.5075576024121702
  0.5851728504009728  0.5859445186899563  0.4199303504586496
  0.5885091163508847  0.4198960237962410  0.5887141288351643
  0.4191294484951911  0.5892903085729841  0.5887197801076312
  0.3362709754901658  0.3370316500387318  0.6691961124378594
  0.5024910219699379  0.5032625644057447  0.6696438630726291
  0.5025702287629059  0.3365117533008402  0.8362020087125472
  0.3357421216530341  0.5033388839702582  0.8362018578650208
  0.4192779014914407  0.4200467989198913  0.7530346722079386
  0.5858558594716428  0.5866259272305783  0.7528455359510531
  0.5858315827337606  0.4198890856741500  0.9195275758488961
  0.4191190244043952  0.5865998364733969  0.9195283901537152
  0.3356987130768658  0.6701277478039458  0.0025510572841156
  0.5025185923854281  0.8367349695540511  0.0025786631863625
  0.5016825313924471  0.6698431290574760  0.1694785946075399
  0.3356995741967523  0.8367669674216600  0.1691911943229556
  0.4189171374933593  0.7535678388623879  0.0857478746849338
  0.5857913713944143  0.9195534159967309  0.0863087504779756
  0.5852286812156464  0.7524240714759145  0.2533240338693545
  0.4191203167201607  0.9197957565742882  0.2527196009551602
  0.3354840970853985  0.6702141728459310  0.3361904117710068
  0.5022884337671982  0.8365129857335631  0.3362664943198084
  0.5023694842175459  0.6702168436107243  0.5030588291463971
  0.3356903828226621  0.8366937415983742  0.5028630363603526
  0.4189342182468110  0.7532356416682546  0.4196163429453108
  0.5858335531000094  0.9197949312186822  0.4194359149409479
  0.5859636818871010  0.7534206223855477  0.5860723759161814
  0.4191724981580691  0.9199150609023334  0.5861534624660152
  0.3355864052651825  0.6716593731545402  0.6712248131495571
  0.5025827523583857  0.8366843618406605  0.6695269953338965
  0.5024996825315142  0.6699312256064331  0.8362804889631619
  0.3356798930678195  0.8371468884537521  0.8364363865549862
  0.4192795047253242  0.7542566145201874  0.7537791056087997
  0.5859682276089018  0.9197625744452651  0.7529461756259650
  0.5857866691231592  0.7529953146205699  0.9197673325081794
  0.4191890432672025  0.9199943346708253  0.9193035935219811
  0.6691516352519074  0.0029916536395689  0.0029710308450035
  0.8358130795676146  0.1697554604387506  0.0027429008451989
  0.8355812737055501  0.0029896138842602  0.1693976679889531
  0.6691489249871125  0.1699403198070613  0.1693997358987716
  0.7524198667903477  0.0864578617892917  0.0861272120450067
  0.9191664177882899  0.2531282618794464  0.0858779627459043
  0.9190001958519716  0.0863731890953758  0.2525871536342024
  0.7526504169624673  0.2532467457703120  0.2525927447505012
  0.6691679586250245  0.0030291887139455  0.3360512155256927
  0.8359210613454948  0.1697921959723274  0.3359739634443315
  0.8363990802426784  0.0028680407259003  0.5028777646772014
  0.6709117517265284  0.1680594287141517  0.5029671882523559
  0.7535118766274778  0.0855113489180042  0.4192719148480535
  0.9191491773463696  0.2531723020868313  0.4193820066579121
  0.9194243978350300  0.0865861696827182  0.5860847052919240
  0.7528444104439416  0.2530000085977022  0.5863167676518373
  0.6693550023723063  0.0030472364549468  0.6696816246019281
  0.8361708977888966  0.1697880486477885  0.6695288388335996
  0.8358428337238593  0.0031355280119669  0.8361906959153416
  0.6693535990368460  0.1696439787919104  0.8362644815912503
  0.7526434848102497  0.0864990549156133  0.7528179419286971
  0.9194218724802354  0.2532384748431014  0.7527280210549137
  0.9191658247217731  0.0865032948245528  0.9193975777747951
  0.7526733745843899  0.2531257004627392  0.9193889686891410
  0.6693609836758441  0.3364691245229707  0.0025491432595430
  0.8359707236147145  0.5032879456880011  0.0025745537067081
  0.8359975600955210  0.3364694344682277  0.1691924253412509
  0.6690756247387739  0.5024495982504291  0.1694772617881242
  0.7528026367549785  0.4196867650913134  0.0857449871216502
  0.9187859730588741  0.5865599201372973  0.0863084812751467
  0.9190267974420578  0.4198903392530084  0.2527202447569934
  0.7516546882442015  0.5859971722295896  0.2533233017104166
  0.6694398361625531  0.3362524552879194  0.3361920578253645
  0.8357423026732675  0.5030571391905880  0.3362667536706354
  0.8359223022316513  0.3364622735582827  0.5028613840268008
  0.6694407449735849  0.5031371289383131  0.5030578760285138
  0.7524620833405748  0.4197043870181147  0.4196154977877953
  0.9190252778463304  0.5866012293940486  0.4194361278970433
  0.9191455653543912  0.4199433441310916  0.5861511261085681
  0.7526464251919052  0.5867305364253212  0.5860720537210753
  0.6708840890720822  0.3363556326383375  0.6712197098211306
  0.8359132144335177  0.5033515172977374  0.6695253795460872
  0.8363790093212131  0.3364507938663195  0.8364330653906507
  0.6691623769209727  0.5032693891582909  0.8362788199138009
  0.7534844519350656  0.4200472850968850  0.7537754937791874
  0.9189934475194903  0.5867356128931505  0.7529444392371474
  0.9192310944237079  0.4199591550502859  0.9192973264311988
  0.7522277078811044  0.5865551501842461  0.9197659530178299
  0.6687492354228866  0.6695167678009923  0.0033375305699295
  0.8356009934937561  0.8363714859061844  0.0029537896377150
  0.8352101845305810  0.6695182773487147  0.1697946714523368
  0.6687501826663080  0.8359787966072147  0.1697950987882209
  0.7521172100035614  0.7528857875220751  0.0864260480943457
  0.9189756566658858  0.9197459445427398  0.0861232191793633
  0.9187854731953280  0.7530019806900441  0.2527614076741003
  0.7522340591059233  0.9195543251850964  0.2527612444002969
  0.6690857497668006  0.6698546339568594  0.3368631914874456
  0.8359766026916233  0.8367450958108478  0.3360376544518076
  0.8359946115539145  0.6701282692192692  0.5028562017506317
  0.6693625601636768  0.8367658901777091  0.5028556496446654
  0.7528060713876812  0.7535742492241866  0.4196353718424959
  0.9192522438753841  0.9200221490683376  0.4193627266777824
  0.9191642837409191  0.7534376906476723  0.5861975724218453
  0.7526738241802633  0.9199328953783095  0.5861975449729684
  0.6691469420255842  0.6699174634001750  0.6693771346427368
  0.8358105220616494  0.8365771684353902  0.6695657269255761
  0.8355774119557893  0.6699197212446748  0.8363344799380243
  0.6691509325624878  0.8363455001160744  0.8363354808206367
  0.7524182151734564  0.7531869801841751  0.7528604467719902
  0.9191641678469296  0.9199348333795712  0.7528114201943339
  0.9189730077032365  0.7531918689979307  0.9195855764618130
  0.7524217143054059  0.9197435508859044  0.9195854226650582
  0.4646616935546177  0.3871003401541273  0.4520590346910325
  0.3865742448933531  0.3873313169690391  0.3735219338273268
  0.3864095687450373  0.4655464627832941  0.4519942927202507
 
  0.00000000E+00  0.00000000E+00  0.00000000E+00
  0.00000000E+00  0.00000000E+00  0.00000000E+00
  0.00000000E+00  0.00000000E+00  0.00000000E+00
  0.00000000E+00  0.00000000E+00  0.00000000E+00
  0.00000000E+00  0.00000000E+00  0.00000000E+00
  0.00000000E+00  0.00000000E+00  0.00000000E+00
  0.00000000E+00  0.00000000E+00  0.00000000E+00
  0.00000000E+00  0.00000000E+00  0.00000000E+00
  0.00000000E+00  0.00000000E+00  0.00000000E+00
  0.00000000E+00  0.00000000E+00  0.00000000E+00
  0.00000000E+00  0.00000000E+00  0.00000000E+00
  0.00000000E+00  0.00000000E+00  0.00000000E+00
  0.00000000E+00  0.00000000E+00  0.00000000E+00
  0.00000000E+00  0.00000000E+00  0.00000000E+00
  0.00000000E+00  0.00000000E+00  0.00000000E+00
  0.00000000E+00  0.00000000E+00  0.00000000E+00
  0.00000000E+00  0.00000000E+00  0.00000000E+00
  0.00000000E+00  0.00000000E+00  0.00000000E+00
  0.00000000E+00  0.00000000E+00  0.00000000E+00
  0.00000000E+00  0.00000000E+00  0.00000000E+00
  0.00000000E+00  0.00000000E+00  0.00000000E+00
  0.00000000E+00  0.00000000E+00  0.00000000E+00
  0.00000000E+00  0.00000000E+00  0.00000000E+00
  0.00000000E+00  0.00000000E+00  0.00000000E+00
  0.00000000E+00  0.00000000E+00  0.00000000E+00
  0.00000000E+00  0.00000000E+00  0.00000000E+00
  0.00000000E+00  0.00000000E+00  0.00000000E+00
  0.00000000E+00  0.00000000E+00  0.00000000E+00
  0.00000000E+00  0.00000000E+00  0.00000000E+00
  0.00000000E+00  0.00000000E+00  0.00000000E+00
  0.00000000E+00  0.00000000E+00  0.00000000E+00
  0.00000000E+00  0.00000000E+00  0.00000000E+00
  0.00000000E+00  0.00000000E+00  0.00000000E+00
  0.00000000E+00  0.00000000E+00  0.00000000E+00
  0.00000000E+00  0.00000000E+00  0.00000000E+00
  0.00000000E+00  0.00000000E+00  0.00000000E+00
  0.00000000E+00  0.00000000E+00  0.00000000E+00
  0.00000000E+00  0.00000000E+00  0.00000000E+00
  0.00000000E+00  0.00000000E+00  0.00000000E+00
  0.00000000E+00  0.00000000E+00  0.00000000E+00
  0.00000000E+00  0.00000000E+00  0.00000000E+00
  0.00000000E+00  0.00000000E+00  0.00000000E+00
  0.00000000E+00  0.00000000E+00  0.00000000E+00
  0.00000000E+00  0.00000000E+00  0.00000000E+00
  0.00000000E+00  0.00000000E+00  0.00000000E+00
  0.00000000E+00  0.00000000E+00  0.00000000E+00
  0.00000000E+00  0.00000000E+00  0.00000000E+00
  0.00000000E+00  0.00000000E+00  0.00000000E+00
  0.00000000E+00  0.00000000E+00  0.00000000E+00
  0.00000000E+00  0.00000000E+00  0.00000000E+00
  0.00000000E+00  0.00000000E+00  0.00000000E+00
  0.00000000E+00  0.00000000E+00  0.00000000E+00
  0.00000000E+00  0.00000000E+00  0.00000000E+00
  0.00000000E+00  0.00000000E+00  0.00000000E+00
  0.00000000E+00  0.00000000E+00  0.00000000E+00
  0.00000000E+00  0.00000000E+00  0.00000000E+00
  0.00000000E+00  0.00000000E+00  0.00000000E+00
  0.00000000E+00  0.00000000E+00  0.00000000E+00
  0.00000000E+00  0.00000000E+00  0.00000000E+00
  0.00000000E+00  0.00000000E+00  0.00000000E+00
  0.00000000E+00  0.00000000E+00  0.00000000E+00
  0.00000000E+00  0.00000000E+00  0.00000000E+00
  0.00000000E+00  0.00000000E+00  0.00000000E+00
  0.00000000E+00  0.00000000E+00  0.00000000E+00
  0.00000000E+00  0.00000000E+00  0.00000000E+00
  0.00000000E+00  0.00000000E+00  0.00000000E+00
  0.00000000E+00  0.00000000E+00  0.00000000E+00
  0.00000000E+00  0.00000000E+00  0.00000000E+00
  0.00000000E+00  0.00000000E+00  0.00000000E+00
  0.00000000E+00  0.00000000E+00  0.00000000E+00
  0.00000000E+00  0.00000000E+00  0.00000000E+00
  0.00000000E+00  0.00000000E+00  0.00000000E+00
  0.00000000E+00  0.00000000E+00  0.00000000E+00
  0.00000000E+00  0.00000000E+00  0.00000000E+00
  0.00000000E+00  0.00000000E+00  0.00000000E+00
  0.00000000E+00  0.00000000E+00  0.00000000E+00
  0.00000000E+00  0.00000000E+00  0.00000000E+00
  0.00000000E+00  0.00000000E+00  0.00000000E+00
  0.00000000E+00  0.00000000E+00  0.00000000E+00
  0.00000000E+00  0.00000000E+00  0.00000000E+00
  0.00000000E+00  0.00000000E+00  0.00000000E+00
  0.00000000E+00  0.00000000E+00  0.00000000E+00
  0.00000000E+00  0.00000000E+00  0.00000000E+00
  0.00000000E+00  0.00000000E+00  0.00000000E+00
  0.00000000E+00  0.00000000E+00  0.00000000E+00
  0.00000000E+00  0.00000000E+00  0.00000000E+00
  0.00000000E+00  0.00000000E+00  0.00000000E+00
  0.00000000E+00  0.00000000E+00  0.00000000E+00
  0.00000000E+00  0.00000000E+00  0.00000000E+00
  0.00000000E+00  0.00000000E+00  0.00000000E+00
  0.00000000E+00  0.00000000E+00  0.00000000E+00
  0.00000000E+00  0.00000000E+00  0.00000000E+00
  0.00000000E+00  0.00000000E+00  0.00000000E+00
  0.00000000E+00  0.00000000E+00  0.00000000E+00
  0.00000000E+00  0.00000000E+00  0.00000000E+00
  0.00000000E+00  0.00000000E+00  0.00000000E+00
  0.00000000E+00  0.00000000E+00  0.00000000E+00
  0.00000000E+00  0.00000000E+00  0.00000000E+00
  0.00000000E+00  0.00000000E+00  0.00000000E+00
  0.00000000E+00  0.00000000E+00  0.00000000E+00
  0.00000000E+00  0.00000000E+00  0.00000000E+00
  0.00000000E+00  0.00000000E+00  0.00000000E+00
  0.00000000E+00  0.00000000E+00  0.00000000E+00
  0.00000000E+00  0.00000000E+00  0.00000000E+00
  0.00000000E+00  0.00000000E+00  0.00000000E+00
  0.00000000E+00  0.00000000E+00  0.00000000E+00
  0.00000000E+00  0.00000000E+00  0.00000000E+00
  0.00000000E+00  0.00000000E+00  0.00000000E+00
  0.00000000E+00  0.00000000E+00  0.00000000E+00
  0.00000000E+00  0.00000000E+00  0.00000000E+00
  0.00000000E+00  0.00000000E+00  0.00000000E+00
  0.00000000E+00  0.00000000E+00  0.00000000E+00
  0.00000000E+00  0.00000000E+00  0.00000000E+00
  0.00000000E+00  0.00000000E+00  0.00000000E+00
  0.00000000E+00  0.00000000E+00  0.00000000E+00
  0.00000000E+00  0.00000000E+00  0.00000000E+00
  0.00000000E+00  0.00000000E+00  0.00000000E+00
  0.00000000E+00  0.00000000E+00  0.00000000E+00
  0.00000000E+00  0.00000000E+00  0.00000000E+00
  0.00000000E+00  0.00000000E+00  0.00000000E+00
  0.00000000E+00  0.00000000E+00  0.00000000E+00
  0.00000000E+00  0.00000000E+00  0.00000000E+00
  0.00000000E+00  0.00000000E+00  0.00000000E+00
  0.00000000E+00  0.00000000E+00  0.00000000E+00
  0.00000000E+00  0.00000000E+00  0.00000000E+00
  0.00000000E+00  0.00000000E+00  0.00000000E+00
  0.00000000E+00  0.00000000E+00  0.00000000E+00
  0.00000000E+00  0.00000000E+00  0.00000000E+00
  0.00000000E+00  0.00000000E+00  0.00000000E+00
  0.00000000E+00  0.00000000E+00  0.00000000E+00
  0.00000000E+00  0.00000000E+00  0.00000000E+00
  0.00000000E+00  0.00000000E+00  0.00000000E+00
  0.00000000E+00  0.00000000E+00  0.00000000E+00
  0.00000000E+00  0.00000000E+00  0.00000000E+00
  0.00000000E+00  0.00000000E+00  0.00000000E+00
  0.00000000E+00  0.00000000E+00  0.00000000E+00
  0.00000000E+00  0.00000000E+00  0.00000000E+00
  0.00000000E+00  0.00000000E+00  0.00000000E+00
  0.00000000E+00  0.00000000E+00  0.00000000E+00
  0.00000000E+00  0.00000000E+00  0.00000000E+00
  0.00000000E+00  0.00000000E+00  0.00000000E+00
  0.00000000E+00  0.00000000E+00  0.00000000E+00
  0.00000000E+00  0.00000000E+00  0.00000000E+00
  0.00000000E+00  0.00000000E+00  0.00000000E+00
  0.00000000E+00  0.00000000E+00  0.00000000E+00
  0.00000000E+00  0.00000000E+00  0.00000000E+00
  0.00000000E+00  0.00000000E+00  0.00000000E+00
  0.00000000E+00  0.00000000E+00  0.00000000E+00
  0.00000000E+00  0.00000000E+00  0.00000000E+00
  0.00000000E+00  0.00000000E+00  0.00000000E+00
  0.00000000E+00  0.00000000E+00  0.00000000E+00
  0.00000000E+00  0.00000000E+00  0.00000000E+00
  0.00000000E+00  0.00000000E+00  0.00000000E+00
  0.00000000E+00  0.00000000E+00  0.00000000E+00
  0.00000000E+00  0.00000000E+00  0.00000000E+00
  0.00000000E+00  0.00000000E+00  0.00000000E+00
  0.00000000E+00  0.00000000E+00  0.00000000E+00
  0.00000000E+00  0.00000000E+00  0.00000000E+00
  0.00000000E+00  0.00000000E+00  0.00000000E+00
  0.00000000E+00  0.00000000E+00  0.00000000E+00
  0.00000000E+00  0.00000000E+00  0.00000000E+00
  0.00000000E+00  0.00000000E+00  0.00000000E+00
  0.00000000E+00  0.00000000E+00  0.00000000E+00
  0.00000000E+00  0.00000000E+00  0.00000000E+00
  0.00000000E+00  0.00000000E+00  0.00000000E+00
  0.00000000E+00  0.00000000E+00  0.00000000E+00
  0.00000000E+00  0.00000000E+00  0.00000000E+00
  0.00000000E+00  0.00000000E+00  0.00000000E+00
  0.00000000E+00  0.00000000E+00  0.00000000E+00
  0.00000000E+00  0.00000000E+00  0.00000000E+00
  0.00000000E+00  0.00000000E+00  0.00000000E+00
  0.00000000E+00  0.00000000E+00  0.00000000E+00
  0.00000000E+00  0.00000000E+00  0.00000000E+00
  0.00000000E+00  0.00000000E+00  0.00000000E+00
  0.00000000E+00  0.00000000E+00  0.00000000E+00
  0.00000000E+00  0.00000000E+00  0.00000000E+00
  0.00000000E+00  0.00000000E+00  0.00000000E+00
  0.00000000E+00  0.00000000E+00  0.00000000E+00
  0.00000000E+00  0.00000000E+00  0.00000000E+00
  0.00000000E+00  0.00000000E+00  0.00000000E+00
  0.00000000E+00  0.00000000E+00  0.00000000E+00
  0.00000000E+00  0.00000000E+00  0.00000000E+00
  0.00000000E+00  0.00000000E+00  0.00000000E+00
  0.00000000E+00  0.00000000E+00  0.00000000E+00
  0.00000000E+00  0.00000000E+00  0.00000000E+00
  0.00000000E+00  0.00000000E+00  0.00000000E+00
  0.00000000E+00  0.00000000E+00  0.00000000E+00
  0.00000000E+00  0.00000000E+00  0.00000000E+00
  0.00000000E+00  0.00000000E+00  0.00000000E+00
  0.00000000E+00  0.00000000E+00  0.00000000E+00
  0.00000000E+00  0.00000000E+00  0.00000000E+00
  0.00000000E+00  0.00000000E+00  0.00000000E+00
  0.00000000E+00  0.00000000E+00  0.00000000E+00
  0.00000000E+00  0.00000000E+00  0.00000000E+00
  0.00000000E+00  0.00000000E+00  0.00000000E+00
  0.00000000E+00  0.00000000E+00  0.00000000E+00
  0.00000000E+00  0.00000000E+00  0.00000000E+00
  0.00000000E+00  0.00000000E+00  0.00000000E+00
  0.00000000E+00  0.00000000E+00  0.00000000E+00
  0.00000000E+00  0.00000000E+00  0.00000000E+00
  0.00000000E+00  0.00000000E+00  0.00000000E+00
  0.00000000E+00  0.00000000E+00  0.00000000E+00
  0.00000000E+00  0.00000000E+00  0.00000000E+00
  0.00000000E+00  0.00000000E+00  0.00000000E+00
  0.00000000E+00  0.00000000E+00  0.00000000E+00
  0.00000000E+00  0.00000000E+00  0.00000000E+00
  0.00000000E+00  0.00000000E+00  0.00000000E+00
  0.00000000E+00  0.00000000E+00  0.00000000E+00
  0.00000000E+00  0.00000000E+00  0.00000000E+00
  0.00000000E+00  0.00000000E+00  0.00000000E+00
  0.00000000E+00  0.00000000E+00  0.00000000E+00
  0.00000000E+00  0.00000000E+00  0.00000000E+00
  0.00000000E+00  0.00000000E+00  0.00000000E+00
  0.00000000E+00  0.00000000E+00  0.00000000E+00
  0.00000000E+00  0.00000000E+00  0.00000000E+00
  0.00000000E+00  0.00000000E+00  0.00000000E+00
  0.00000000E+00  0.00000000E+00  0.00000000E+00
  0.00000000E+00  0.00000000E+00  0.00000000E+00
