SiVH3                                   
   1.00000000000000     
    16.4117625311398250    0.0000347833292740    0.0000000000000000
     0.0000347833292740   16.4117625311398250    0.0000000000000000
     0.0000000000000000    0.0000000000000000   16.4117624058248701
   Si   H 
   215     3
Direct
  0.0023643132898757  0.0031351985535086  0.0027124998532829
  0.1690083173102647  0.1697796364897685  0.0023727054841167
  0.1688689695025554  0.0030533191125028  0.1691977983044350
  0.0022854023260891  0.1696403802660078  0.1691994866164469
  0.0857242768965988  0.0864949429530437  0.0859043958956443
  0.2522260550086980  0.2529944735566550  0.0856862718641384
  0.2523149158083779  0.0862052861988014  0.2524875087201686
  0.0854388995871398  0.2530845898907605  0.2524901441432828
  0.0024378893021715  0.0032084023653685  0.3358347059515505
  0.1688628655431462  0.1696291179230989  0.3358005173055401
  0.1692300805540409  0.0034296618776288  0.5026402137918407
  0.0026623693900358  0.1700042081294618  0.5026382821341658
  0.0856576003297307  0.0864274915353132  0.4192474315316772
  0.2520867000866016  0.2528484875808320  0.4191951888912542
  0.2527153647089462  0.0868418702132943  0.5858352776448148
  0.0860780163024364  0.2534878300865726  0.5858323805636523
  0.0025845551810142  0.0033565015481667  0.6694623672129861
  0.1693785555791694  0.1701481085569026  0.6691706196454094
  0.1690807054444196  0.0033523399554268  0.8359660236037767
  0.0025814363316012  0.1698526730674706  0.8359648223068993
  0.0859428160343385  0.0867138440008477  0.7525996879221566
  0.2527177344976778  0.2534873067100390  0.7524752327405324
  0.2524654135898839  0.0865781488571218  0.9191322296717910
  0.0858074246021133  0.2532368832009514  0.9191312822377957
  0.0020847720977810  0.3364491304243346  0.0021436513069430
  0.1690188513021473  0.5033535639428800  0.0026277868568342
  0.1672836186917453  0.3363526857258801  0.1676202226254058
  0.0022584538138466  0.5032692232075708  0.1693765242829877
  0.0847319961882955  0.4200521383929601  0.0850216115866786
  0.2524754898136335  0.5867342108201689  0.0858926578415649
  0.2497783427401085  0.4198963730348919  0.2499823218151558
  0.0856857531253081  0.5866302456666457  0.2526862976715505
  0.0023450071057016  0.3365143736591387  0.3359868493460411
  0.1688865787520913  0.5032650409349178  0.3360448904438841
  0.1693559269644465  0.3370377982976741  0.5022840389896099
  0.0023459973917332  0.5033393231878214  0.5028142174005881
  0.0855141976743697  0.4200487910772177  0.4192743977643715
  0.2497796829825314  0.5893180504479453  0.4194143686693806
  0.2520445462476725  0.4201201670880609  0.5865090540059310
  0.0854379290309398  0.5868329278779063  0.5862438411160005
  0.0026625932960866  0.3366865986177672  0.6693125228781486
  0.1688397395727812  0.5035266004552620  0.6697147466954612
  0.1692296590312715  0.3366852665475677  0.8358916364661093
  0.0024245157128816  0.5034929594148121  0.8361234518475464
  0.0856411434462499  0.4200756638642134  0.7529047296233349
  0.2523175562771439  0.5868330720771617  0.7531052872583063
  0.2523987642783204  0.4199448074577147  0.9194065013587301
  0.0856021657195306  0.5867389397424562  0.9195538138331203
  0.0022218923068086  0.6699210804062592  0.0029700196219838
  0.1689849436095383  0.8365808127805021  0.0027419336270175
  0.1691705125912129  0.6699182271813342  0.1694008501833753
  0.0022188876260458  0.8363504219058030  0.1693973171610787
  0.0856878462148542  0.7531885081163987  0.0861274647534395
  0.2523576842263131  0.9199349083582415  0.0858765202775270
  0.2524763280158597  0.7534222038227958  0.2525918652276897
  0.0856016494776929  0.9197699124903409  0.2525869468080086
  0.0022598974288707  0.6699356739114276  0.3360519058345761
  0.1690204879892588  0.8366908029723348  0.3359739858227164
  0.1672899273821158  0.6716836493490039  0.5029680521505454
  0.0020958235398965  0.8371663197794112  0.5028777258599316
  0.0847410322059751  0.7542808667064984  0.4192722337591578
  0.2523993767117403  0.9199188361603190  0.4193829504046420
  0.2522289589440727  0.7536160225631101  0.5863195148530327
  0.0858117236948437  0.9201923412745807  0.5860862375295516
  0.0022809387982255  0.6701192100981429  0.6696808294891013
  0.1690143427511245  0.8369400635780183  0.6695312490709076
  0.1688736275475676  0.6701193708004972  0.8362628918693038
  0.0023644238790595  0.8366134528535354  0.8361911223509243
  0.0857270118930906  0.7534109943686814  0.7528195318909773
  0.2524653228992986  0.9201888906238596  0.7527318545471268
  0.2523550730754539  0.7534386557169162  0.9193892420986791
  0.0857324435450811  0.9199356922370714  0.9193985953942336
  0.3356783466185650  0.0028534340958459  0.0021427131657698
  0.5025848143415258  0.1697889661180834  0.0026262025322928
  0.5025001967150799  0.0030261314406632  0.1693754319788858
  0.3355842122832006  0.1680479955135789  0.1676166147231740
  0.4192847167551123  0.0854986042900591  0.0850182414319848
  0.5859666702774471  0.2532454271323257  0.0858900976718547
  0.5858622990379907  0.0864530684007305  0.2526842165293714
  0.4191293683984900  0.2505406947371415  0.2499783527814280
  0.3357429831402062  0.0031121266282548  0.3359865624396967
  0.5024947728710600  0.1696500638309253  0.3360434104672934
  0.5025706668841970  0.0031127359226421  0.5028156699383506
  0.3362707973305055  0.1701156675051633  0.5022902969983685
  0.4192793219614460  0.0862784383112515  0.4192747575854128
  0.5885407651484618  0.2505475453502050  0.4194145653671399
  0.5860675889633060  0.0862010790430022  0.5862457825727241
  0.4193574589012208  0.2527788374370377  0.5865364440825421
  0.3359144562700815  0.0034281352350960  0.6693172838318214
  0.5027640834872901  0.1695847266713807  0.6697357217776536
  0.5027248463000100  0.0031854477207334  0.8361328452325987
  0.3359151527880787  0.1699989124942788  0.8358931249332547
  0.4193043025215972  0.0863968545653583  0.7529186461991437
  0.5860652890813887  0.2530848695012357  0.7531082490442097
  0.5859711468831602  0.0863719085222928  0.9195542357507841
  0.4191749350936094  0.2531693114283174  0.9194064028760153
  0.3356926049452373  0.3364627276836946  0.0026194250254608
  0.5022867124727914  0.5030555258782490  0.0028043306403174
  0.5023662993930943  0.3362501018721664  0.1690949053646416
  0.3354829203928704  0.5031353903846292  0.1690966882247079
  0.4189343928146406  0.4197034916967461  0.0860820788836365
  0.5852271822405393  0.5859948867188576  0.0868976969038286
  0.5851639193238829  0.4193692777903668  0.2533861633090113
  0.4186014876796596  0.5859339554054747  0.2533877897041077
  0.3309772504329855  0.3317400216207124  0.3280225315229688
  0.5050545850596312  0.5058237113315605  0.3334955734343429
  0.5104402093936635  0.3316821967152676  0.5075800208245581
  0.3309420938540218  0.5112245821896120  0.5075576024121733
  0.5851728504009706  0.5859445186899535  0.4199303504586464
  0.5885091163508860  0.4198960237962444  0.5887141288351619
  0.4191294484951925  0.5892903085729806  0.5887197801076288
  0.3362709754901650  0.3370316500387349  0.6691961124378611
  0.5024910219699363  0.5032625644057459  0.6696438630726311
  0.5025702287629045  0.3365117533008436  0.8362020087125470
  0.3357421216530316  0.5033388839702586  0.8362018578650195
  0.4192779014914403  0.4200467989198914  0.7530346722079408
  0.5858558594716393  0.5866259272305769  0.7528455359510537
  0.5858315827337599  0.4198890856741499  0.9195275758488960
  0.4191190244043962  0.5865998364733963  0.9195283901537160
  0.3356987130768647  0.6701277478039457  0.0025510572841130
  0.5025185923854307  0.8367349695540524  0.0025786631863594
  0.5016825313924480  0.6698431290574747  0.1694785946075388
  0.3356995741967514  0.8367669674216607  0.1691911943229580
  0.4189171374933572  0.7535678388623912  0.0857478746849370
  0.5857913713944158  0.9195534159967291  0.0863087504779756
  0.5852286812156497  0.7524240714759161  0.2533240338693551
  0.4191203167201584  0.9197957565742881  0.2527196009551602
  0.3354840970853999  0.6702141728459302  0.3361904117710063
  0.5022884337671959  0.8365129857335634  0.3362664943198065
  0.5023694842175479  0.6702168436107260  0.5030588291463935
  0.3356903828226603  0.8366937415983745  0.5028630363603529
  0.4189342182468077  0.7532356416682523  0.4196163429453112
  0.5858335531000108  0.9197949312186789  0.4194359149409480
  0.5859636818871043  0.7534206223855454  0.5860723759161782
  0.4191724981580702  0.9199150609023349  0.5861534624660140
  0.3355864052651795  0.6716593731545406  0.6712248131495578
  0.5025827523583822  0.8366843618406627  0.6695269953338930
  0.5024996825315108  0.6699312256064326  0.8362804889631649
  0.3356798930678204  0.8371468884537488  0.8364363865549834
  0.4192795047253207  0.7542566145201867  0.7537791056087983
  0.5859682276089039  0.9197625744452629  0.7529461756259673
  0.5857866691231594  0.7529953146205681  0.9197673325081815
  0.4191890432672047  0.9199943346708256  0.9193035935219792
  0.6691516352519058  0.0029916536395702  0.0029710308450058
  0.8358130795676179  0.1697554604387480  0.0027429008451983
  0.8355812737055468  0.0029896138842569  0.1693976679889500
  0.6691489249871140  0.1699403198070631  0.1693997358987713
  0.7524198667903499  0.0864578617892892  0.0861272120450083
  0.9191664177882872  0.2531282618794488  0.0858779627459057
  0.9190001958519732  0.0863731890953726  0.2525871536342045
  0.7526504169624707  0.2532467457703098  0.2525927447504995
  0.6691679586250252  0.0030291887139454  0.3360512155256933
  0.8359210613454973  0.1697921959723266  0.3359739634443314
  0.8363990802426777  0.0028680407259014  0.5028777646772024
  0.6709117517265315  0.1680594287141530  0.5029671882523572
  0.7535118766274760  0.0855113489180024  0.4192719148480525
  0.9191491773463718  0.2531723020868298  0.4193820066579142
  0.9194243978350310  0.0865861696827147  0.5860847052919252
  0.7528444104439422  0.2530000085977038  0.5863167676518357
  0.6693550023723082  0.0030472364549469  0.6696816246019256
  0.8361708977888987  0.1697880486477907  0.6695288388335960
  0.8358428337238574  0.0031355280119673  0.8361906959153411
  0.6693535990368480  0.1696439787919105  0.8362644815912482
  0.7526434848102528  0.0864990549156118  0.7528179419286942
  0.9194218724802378  0.2532384748431047  0.7527280210549134
  0.9191658247217712  0.0865032948245501  0.9193975777747966
  0.7526733745843917  0.2531257004627397  0.9193889686891435
  0.6693609836758430  0.3364691245229722  0.0025491432595406
  0.8359707236147141  0.5032879456879980  0.0025745537067090
  0.8359975600955187  0.3364694344682283  0.1691924253412499
  0.6690756247387759  0.5024495982504268  0.1694772617881267
  0.7528026367549787  0.4196867650913160  0.0857449871216536
  0.9187859730588720  0.5865599201372973  0.0863084812751454
  0.9190267974420600  0.4198903392530061  0.2527202447569903
  0.7516546882442005  0.5859971722295879  0.2533233017104152
  0.6694398361625541  0.3362524552879163  0.3361920578253632
  0.8357423026732670  0.5030571391905869  0.3362667536706357
  0.8359223022316516  0.3364622735582813  0.5028613840267974
  0.6694407449735845  0.5031371289383104  0.5030578760285109
  0.7524620833405781  0.4197043870181137  0.4196154977877966
  0.9190252778463280  0.5866012293940512  0.4194361278970416
  0.9191455653543932  0.4199433441310912  0.5861511261085659
  0.7526464251919083  0.5867305364253239  0.5860720537210764
  0.6708840890720811  0.3363556326383373  0.6712197098211315
  0.8359132144335178  0.5033515172977349  0.6695253795460856
  0.8363790093212141  0.3364507938663164  0.8364330653906499
  0.6691623769209698  0.5032693891582931  0.8362788199138033
  0.7534844519350634  0.4200472850968824  0.7537754937791890
  0.9189934475194909  0.5867356128931497  0.7529444392371464
  0.9192310944237087  0.4199591550502841  0.9192973264311999
  0.7522277078811053  0.5865551501842472  0.9197659530178283
  0.6687492354228858  0.6695167678009933  0.0033375305699296
  0.8356009934937541  0.8363714859061824  0.0029537896377120
  0.8352101845305786  0.6695182773487177  0.1697946714523370
  0.6687501826663084  0.8359787966072180  0.1697950987882197
  0.7521172100035638  0.7528857875220731  0.0864260480943481
  0.9189756566658868  0.9197459445427383  0.0861232191793641
  0.9187854731953266  0.7530019806900408  0.2527614076740968
  0.7522340591059263  0.9195543251850964  0.2527612444002969
  0.6690857497668037  0.6698546339568580  0.3368631914874446
  0.8359766026916231  0.8367450958108507  0.3360376544518064
  0.8359946115539133  0.6701282692192707  0.5028562017506352
  0.6693625601636762  0.8367658901777080  0.5028556496446669
  0.7528060713876792  0.7535742492241878  0.4196353718424958
  0.9192522438753863  0.9200221490683373  0.4193627266777792
  0.9191642837409174  0.7534376906476736  0.5861975724218423
  0.7526738241802655  0.9199328953783086  0.5861975449729661
  0.6691469420255838  0.6699174634001733  0.6693771346427394
  0.8358105220616487  0.8365771684353921  0.6695657269255776
  0.8355774119557897  0.6699197212446768  0.8363344799380253
  0.6691509325624843  0.8363455001160779  0.8363354808206394
  0.7524182151734591  0.7531869801841761  0.7528604467719898
  0.9191641678469319  0.9199348333795686  0.7528114201943328
  0.9189730077032370  0.7531918689979342  0.9195855764618097
  0.7524217143054026  0.9197435508859045  0.9195854226650599
  0.4646616935546176  0.3871003401541264  0.4520590346910320
  0.3865742448933536  0.3873313169690382  0.3735219338273244
  0.3864095687450356  0.4655464627832920  0.4519942927202495
 
  0.00000000E+00  0.00000000E+00  0.00000000E+00
  0.00000000E+00  0.00000000E+00  0.00000000E+00
  0.00000000E+00  0.00000000E+00  0.00000000E+00
  0.00000000E+00  0.00000000E+00  0.00000000E+00
  0.00000000E+00  0.00000000E+00  0.00000000E+00
  0.00000000E+00  0.00000000E+00  0.00000000E+00
  0.00000000E+00  0.00000000E+00  0.00000000E+00
  0.00000000E+00  0.00000000E+00  0.00000000E+00
  0.00000000E+00  0.00000000E+00  0.00000000E+00
  0.00000000E+00  0.00000000E+00  0.00000000E+00
  0.00000000E+00  0.00000000E+00  0.00000000E+00
  0.00000000E+00  0.00000000E+00  0.00000000E+00
  0.00000000E+00  0.00000000E+00  0.00000000E+00
  0.00000000E+00  0.00000000E+00  0.00000000E+00
  0.00000000E+00  0.00000000E+00  0.00000000E+00
  0.00000000E+00  0.00000000E+00  0.00000000E+00
  0.00000000E+00  0.00000000E+00  0.00000000E+00
  0.00000000E+00  0.00000000E+00  0.00000000E+00
  0.00000000E+00  0.00000000E+00  0.00000000E+00
  0.00000000E+00  0.00000000E+00  0.00000000E+00
  0.00000000E+00  0.00000000E+00  0.00000000E+00
  0.00000000E+00  0.00000000E+00  0.00000000E+00
  0.00000000E+00  0.00000000E+00  0.00000000E+00
  0.00000000E+00  0.00000000E+00  0.00000000E+00
  0.00000000E+00  0.00000000E+00  0.00000000E+00
  0.00000000E+00  0.00000000E+00  0.00000000E+00
  0.00000000E+00  0.00000000E+00  0.00000000E+00
  0.00000000E+00  0.00000000E+00  0.00000000E+00
  0.00000000E+00  0.00000000E+00  0.00000000E+00
  0.00000000E+00  0.00000000E+00  0.00000000E+00
  0.00000000E+00  0.00000000E+00  0.00000000E+00
  0.00000000E+00  0.00000000E+00  0.00000000E+00
  0.00000000E+00  0.00000000E+00  0.00000000E+00
  0.00000000E+00  0.00000000E+00  0.00000000E+00
  0.00000000E+00  0.00000000E+00  0.00000000E+00
  0.00000000E+00  0.00000000E+00  0.00000000E+00
  0.00000000E+00  0.00000000E+00  0.00000000E+00
  0.00000000E+00  0.00000000E+00  0.00000000E+00
  0.00000000E+00  0.00000000E+00  0.00000000E+00
  0.00000000E+00  0.00000000E+00  0.00000000E+00
  0.00000000E+00  0.00000000E+00  0.00000000E+00
  0.00000000E+00  0.00000000E+00  0.00000000E+00
  0.00000000E+00  0.00000000E+00  0.00000000E+00
  0.00000000E+00  0.00000000E+00  0.00000000E+00
  0.00000000E+00  0.00000000E+00  0.00000000E+00
  0.00000000E+00  0.00000000E+00  0.00000000E+00
  0.00000000E+00  0.00000000E+00  0.00000000E+00
  0.00000000E+00  0.00000000E+00  0.00000000E+00
  0.00000000E+00  0.00000000E+00  0.00000000E+00
  0.00000000E+00  0.00000000E+00  0.00000000E+00
  0.00000000E+00  0.00000000E+00  0.00000000E+00
  0.00000000E+00  0.00000000E+00  0.00000000E+00
  0.00000000E+00  0.00000000E+00  0.00000000E+00
  0.00000000E+00  0.00000000E+00  0.00000000E+00
  0.00000000E+00  0.00000000E+00  0.00000000E+00
  0.00000000E+00  0.00000000E+00  0.00000000E+00
  0.00000000E+00  0.00000000E+00  0.00000000E+00
  0.00000000E+00  0.00000000E+00  0.00000000E+00
  0.00000000E+00  0.00000000E+00  0.00000000E+00
  0.00000000E+00  0.00000000E+00  0.00000000E+00
  0.00000000E+00  0.00000000E+00  0.00000000E+00
  0.00000000E+00  0.00000000E+00  0.00000000E+00
  0.00000000E+00  0.00000000E+00  0.00000000E+00
  0.00000000E+00  0.00000000E+00  0.00000000E+00
  0.00000000E+00  0.00000000E+00  0.00000000E+00
  0.00000000E+00  0.00000000E+00  0.00000000E+00
  0.00000000E+00  0.00000000E+00  0.00000000E+00
  0.00000000E+00  0.00000000E+00  0.00000000E+00
  0.00000000E+00  0.00000000E+00  0.00000000E+00
  0.00000000E+00  0.00000000E+00  0.00000000E+00
  0.00000000E+00  0.00000000E+00  0.00000000E+00
  0.00000000E+00  0.00000000E+00  0.00000000E+00
  0.00000000E+00  0.00000000E+00  0.00000000E+00
  0.00000000E+00  0.00000000E+00  0.00000000E+00
  0.00000000E+00  0.00000000E+00  0.00000000E+00
  0.00000000E+00  0.00000000E+00  0.00000000E+00
  0.00000000E+00  0.00000000E+00  0.00000000E+00
  0.00000000E+00  0.00000000E+00  0.00000000E+00
  0.00000000E+00  0.00000000E+00  0.00000000E+00
  0.00000000E+00  0.00000000E+00  0.00000000E+00
  0.00000000E+00  0.00000000E+00  0.00000000E+00
  0.00000000E+00  0.00000000E+00  0.00000000E+00
  0.00000000E+00  0.00000000E+00  0.00000000E+00
  0.00000000E+00  0.00000000E+00  0.00000000E+00
  0.00000000E+00  0.00000000E+00  0.00000000E+00
  0.00000000E+00  0.00000000E+00  0.00000000E+00
  0.00000000E+00  0.00000000E+00  0.00000000E+00
  0.00000000E+00  0.00000000E+00  0.00000000E+00
  0.00000000E+00  0.00000000E+00  0.00000000E+00
  0.00000000E+00  0.00000000E+00  0.00000000E+00
  0.00000000E+00  0.00000000E+00  0.00000000E+00
  0.00000000E+00  0.00000000E+00  0.00000000E+00
  0.00000000E+00  0.00000000E+00  0.00000000E+00
  0.00000000E+00  0.00000000E+00  0.00000000E+00
  0.00000000E+00  0.00000000E+00  0.00000000E+00
  0.00000000E+00  0.00000000E+00  0.00000000E+00
  0.00000000E+00  0.00000000E+00  0.00000000E+00
  0.00000000E+00  0.00000000E+00  0.00000000E+00
  0.00000000E+00  0.00000000E+00  0.00000000E+00
  0.00000000E+00  0.00000000E+00  0.00000000E+00
  0.00000000E+00  0.00000000E+00  0.00000000E+00
  0.00000000E+00  0.00000000E+00  0.00000000E+00
  0.00000000E+00  0.00000000E+00  0.00000000E+00
  0.00000000E+00  0.00000000E+00  0.00000000E+00
  0.00000000E+00  0.00000000E+00  0.00000000E+00
  0.00000000E+00  0.00000000E+00  0.00000000E+00
  0.00000000E+00  0.00000000E+00  0.00000000E+00
  0.00000000E+00  0.00000000E+00  0.00000000E+00
  0.00000000E+00  0.00000000E+00  0.00000000E+00
  0.00000000E+00  0.00000000E+00  0.00000000E+00
  0.00000000E+00  0.00000000E+00  0.00000000E+00
  0.00000000E+00  0.00000000E+00  0.00000000E+00
  0.00000000E+00  0.00000000E+00  0.00000000E+00
  0.00000000E+00  0.00000000E+00  0.00000000E+00
  0.00000000E+00  0.00000000E+00  0.00000000E+00
  0.00000000E+00  0.00000000E+00  0.00000000E+00
  0.00000000E+00  0.00000000E+00  0.00000000E+00
  0.00000000E+00  0.00000000E+00  0.00000000E+00
  0.00000000E+00  0.00000000E+00  0.00000000E+00
  0.00000000E+00  0.00000000E+00  0.00000000E+00
  0.00000000E+00  0.00000000E+00  0.00000000E+00
  0.00000000E+00  0.00000000E+00  0.00000000E+00
  0.00000000E+00  0.00000000E+00  0.00000000E+00
  0.00000000E+00  0.00000000E+00  0.00000000E+00
  0.00000000E+00  0.00000000E+00  0.00000000E+00
  0.00000000E+00  0.00000000E+00  0.00000000E+00
  0.00000000E+00  0.00000000E+00  0.00000000E+00
  0.00000000E+00  0.00000000E+00  0.00000000E+00
  0.00000000E+00  0.00000000E+00  0.00000000E+00
  0.00000000E+00  0.00000000E+00  0.00000000E+00
  0.00000000E+00  0.00000000E+00  0.00000000E+00
  0.00000000E+00  0.00000000E+00  0.00000000E+00
  0.00000000E+00  0.00000000E+00  0.00000000E+00
  0.00000000E+00  0.00000000E+00  0.00000000E+00
  0.00000000E+00  0.00000000E+00  0.00000000E+00
  0.00000000E+00  0.00000000E+00  0.00000000E+00
  0.00000000E+00  0.00000000E+00  0.00000000E+00
  0.00000000E+00  0.00000000E+00  0.00000000E+00
  0.00000000E+00  0.00000000E+00  0.00000000E+00
  0.00000000E+00  0.00000000E+00  0.00000000E+00
  0.00000000E+00  0.00000000E+00  0.00000000E+00
  0.00000000E+00  0.00000000E+00  0.00000000E+00
  0.00000000E+00  0.00000000E+00  0.00000000E+00
  0.00000000E+00  0.00000000E+00  0.00000000E+00
  0.00000000E+00  0.00000000E+00  0.00000000E+00
  0.00000000E+00  0.00000000E+00  0.00000000E+00
  0.00000000E+00  0.00000000E+00  0.00000000E+00
  0.00000000E+00  0.00000000E+00  0.00000000E+00
  0.00000000E+00  0.00000000E+00  0.00000000E+00
  0.00000000E+00  0.00000000E+00  0.00000000E+00
  0.00000000E+00  0.00000000E+00  0.00000000E+00
  0.00000000E+00  0.00000000E+00  0.00000000E+00
  0.00000000E+00  0.00000000E+00  0.00000000E+00
  0.00000000E+00  0.00000000E+00  0.00000000E+00
  0.00000000E+00  0.00000000E+00  0.00000000E+00
  0.00000000E+00  0.00000000E+00  0.00000000E+00
  0.00000000E+00  0.00000000E+00  0.00000000E+00
  0.00000000E+00  0.00000000E+00  0.00000000E+00
  0.00000000E+00  0.00000000E+00  0.00000000E+00
  0.00000000E+00  0.00000000E+00  0.00000000E+00
  0.00000000E+00  0.00000000E+00  0.00000000E+00
  0.00000000E+00  0.00000000E+00  0.00000000E+00
  0.00000000E+00  0.00000000E+00  0.00000000E+00
  0.00000000E+00  0.00000000E+00  0.00000000E+00
  0.00000000E+00  0.00000000E+00  0.00000000E+00
  0.00000000E+00  0.00000000E+00  0.00000000E+00
  0.00000000E+00  0.00000000E+00  0.00000000E+00
  0.00000000E+00  0.00000000E+00  0.00000000E+00
  0.00000000E+00  0.00000000E+00  0.00000000E+00
  0.00000000E+00  0.00000000E+00  0.00000000E+00
  0.00000000E+00  0.00000000E+00  0.00000000E+00
  0.00000000E+00  0.00000000E+00  0.00000000E+00
  0.00000000E+00  0.00000000E+00  0.00000000E+00
  0.00000000E+00  0.00000000E+00  0.00000000E+00
  0.00000000E+00  0.00000000E+00  0.00000000E+00
  0.00000000E+00  0.00000000E+00  0.00000000E+00
  0.00000000E+00  0.00000000E+00  0.00000000E+00
  0.00000000E+00  0.00000000E+00  0.00000000E+00
  0.00000000E+00  0.00000000E+00  0.00000000E+00
  0.00000000E+00  0.00000000E+00  0.00000000E+00
  0.00000000E+00  0.00000000E+00  0.00000000E+00
  0.00000000E+00  0.00000000E+00  0.00000000E+00
  0.00000000E+00  0.00000000E+00  0.00000000E+00
  0.00000000E+00  0.00000000E+00  0.00000000E+00
  0.00000000E+00  0.00000000E+00  0.00000000E+00
  0.00000000E+00  0.00000000E+00  0.00000000E+00
  0.00000000E+00  0.00000000E+00  0.00000000E+00
  0.00000000E+00  0.00000000E+00  0.00000000E+00
  0.00000000E+00  0.00000000E+00  0.00000000E+00
  0.00000000E+00  0.00000000E+00  0.00000000E+00
  0.00000000E+00  0.00000000E+00  0.00000000E+00
  0.00000000E+00  0.00000000E+00  0.00000000E+00
  0.00000000E+00  0.00000000E+00  0.00000000E+00
  0.00000000E+00  0.00000000E+00  0.00000000E+00
  0.00000000E+00  0.00000000E+00  0.00000000E+00
  0.00000000E+00  0.00000000E+00  0.00000000E+00
  0.00000000E+00  0.00000000E+00  0.00000000E+00
  0.00000000E+00  0.00000000E+00  0.00000000E+00
  0.00000000E+00  0.00000000E+00  0.00000000E+00
  0.00000000E+00  0.00000000E+00  0.00000000E+00
  0.00000000E+00  0.00000000E+00  0.00000000E+00
  0.00000000E+00  0.00000000E+00  0.00000000E+00
  0.00000000E+00  0.00000000E+00  0.00000000E+00
  0.00000000E+00  0.00000000E+00  0.00000000E+00
  0.00000000E+00  0.00000000E+00  0.00000000E+00
  0.00000000E+00  0.00000000E+00  0.00000000E+00
  0.00000000E+00  0.00000000E+00  0.00000000E+00
  0.00000000E+00  0.00000000E+00  0.00000000E+00
  0.00000000E+00  0.00000000E+00  0.00000000E+00
  0.00000000E+00  0.00000000E+00  0.00000000E+00
  0.00000000E+00  0.00000000E+00  0.00000000E+00
  0.00000000E+00  0.00000000E+00  0.00000000E+00
  0.00000000E+00  0.00000000E+00  0.00000000E+00
  0.00000000E+00  0.00000000E+00  0.00000000E+00
  0.00000000E+00  0.00000000E+00  0.00000000E+00
  0.00000000E+00  0.00000000E+00  0.00000000E+00
  0.00000000E+00  0.00000000E+00  0.00000000E+00
  0.00000000E+00  0.00000000E+00  0.00000000E+00
