GaN_ON                                  
    1.000000000000000     
    15.8909244537000003    0.0000000000000000    0.0000000000000000
     0.0000000000000000   16.5143318175999987    0.0000000000000000
     0.0000000000000000    0.0000000000000000   15.4982528686999999
   Ga   N    O    H 
   180   179     1     1
Direct
  0.0997758791526209  0.0555211896957334  0.3328765363730065
  0.0998543692200010  0.0555113027220409  0.6662697494479778
  0.0997593956372959  0.0555229234329534  0.9995171530344076
  0.0995640673476317  0.3885121011611964  0.3329619694592501
  0.0994380345369174  0.3884618206285905  0.6665911243499748
  0.0993618259384795  0.3884163160922994  0.9997178916811693
  0.0997617472184016  0.7223370513170180  0.3329288006581828
  0.0997532788284631  0.7223347815761225  0.6664444924023529
  0.0995885959524917  0.7224464592006032  0.9997213438274225
  0.2999285294845404  0.0555920583770744  0.3328955914437362
  0.2999359996728167  0.0556197087201272  0.6663403909518686
  0.2998633978176988  0.0555968561998986  0.9995923971468238
  0.2990544658747157  0.3883158981113544  0.3326021168763328
  0.2989629168545620  0.3880588422560241  0.6686415753085495
  0.2989463175862779  0.3878884294668987  0.9985192487627131
  0.3000180466824588  0.7232268285159834  0.3325934684787025
  0.2998196801121124  0.7234416532591852  0.6686428703167828
  0.2996791043943742  0.7235408893940074  0.9985110289638257
  0.5000714525154553  0.0555920583770744  0.3328955914437362
  0.5000639823271786  0.0556197087201272  0.6663403909518686
  0.5001365841822969  0.0555968561998986  0.9995923971468238
  0.5009455761252848  0.3883158981113544  0.3326021168763328
  0.5010370661454372  0.3880588422560241  0.6686415753085495
  0.5010537244137153  0.3878884294668987  0.9985192487627131
  0.4999819653175388  0.7232268285159834  0.3325934684787025
  0.5001803318878861  0.7234416532591852  0.6686428703167828
  0.5003209076056309  0.7235408893940074  0.9985110289638257
  0.7002241328473772  0.0555211896957334  0.3328765363730065
  0.7001456057799972  0.0555113027220409  0.6662697494479778
  0.7002406013627046  0.0555229234329534  0.9995171530344076
  0.7004359226523645  0.3885121011611964  0.3329619694592501
  0.7005619694630871  0.3884618206285905  0.6665911243499748
  0.7006381640615169  0.3884163160922994  0.9997178916811693
  0.7002382357815976  0.7223370513170180  0.3329288006581828
  0.7002467181715376  0.7223347815761225  0.6664444924023529
  0.7004113870475077  0.7224464592006032  0.9997213438274225
  0.8999999759999966  0.0554895020695102  0.3328743839809827
  0.8999999759999966  0.0554529721431496  0.6662247169671387
  0.8999999759999966  0.0554820681077475  0.9995286392185735
  0.8999999759999966  0.3885994173994655  0.3328937241003293
  0.8999999759999966  0.3886415709932244  0.6663526190343338
  0.8999999759999966  0.3886657014555018  0.9995992811153888
  0.8999999759999966  0.7222419619907944  0.3329010581058240
  0.8999999759999966  0.7222371048478047  0.6663076181422544
  0.8999999759999966  0.7222710886994329  0.9995686548246211
  0.9998280053430288  0.2220154759294875  0.3328836747567921
  0.9998501211019127  0.2220019376988028  0.6663033954392324
  0.9998153075489234  0.2219808059024934  0.9995569132702301
  0.9996600187731939  0.5553644975560857  0.3328033944573932
  0.9996893266425392  0.5553728155877270  0.6664222874874416
  0.9996373567035740  0.5554343720726540  0.9996158680008628
  0.9998743117295620  0.8889407847315511  0.3328886244458976
  0.9999091850484255  0.8889035703897580  0.6662634137685155
  0.9998581119779708  0.8889686544749344  0.9995426891391308
  0.1996188162670299  0.2217844436001559  0.3328045068261765
  0.1996655147789093  0.2218688932084905  0.6664095094036705
  0.1996209363733980  0.2217598491641693  0.9996257839075838
  0.1991341093200795  0.5549730187567476  0.3326044993596790
  0.1988185407156344  0.5550288046538682  0.6686310217475741
  0.1986824410046309  0.5550954388464688  0.9985163438184995
  0.1997732987668032  0.8893320519037899  0.3328047099703431
  0.1998434113273977  0.8892577201237311  0.6664003707213058
  0.1997081579485574  0.8893325486431313  0.9996168689789962
  0.4000000059999991  0.2219397005325418  0.3329283998414014
  0.4000000059999991  0.2219331684620785  0.6664775787356926
  0.4000000059999991  0.2217270860383332  0.9997282313317418
  0.4000000059999991  0.5554844483273454  0.2871880754289469
  0.4000000059999991  0.5555062576392242  0.6684205992673931
  0.4000000059999991  0.5555017220645343  0.0010248713553254
  0.4000000059999991  0.8893614578328465  0.3329603781537845
  0.4000000059999991  0.8895083610453988  0.6666030216749984
  0.4000000059999991  0.8895999332925748  0.9997108617361624
  0.6003811957329688  0.2217844436001559  0.3328045068261765
  0.6003345122210866  0.2218688932084905  0.6664095094036705
  0.6003790756266000  0.2217598491641693  0.9996257839075838
  0.6008659326799137  0.5549730187567476  0.3326044993596790
  0.6011814862843683  0.5550288046538682  0.6686310217475741
  0.6013176149953641  0.5550954388464688  0.9985163438184995
  0.6002267432331975  0.8893320519037899  0.3328047099703431
  0.6001565856726028  0.8892577201237311  0.6664003707213058
  0.6002918690514453  0.8893325486431313  0.9996168689789962
  0.8001720066569693  0.2220154759294875  0.3328836747567921
  0.8001498908980854  0.2220019376988028  0.6663033954392324
  0.8001847044510747  0.2219808059024934  0.9995569132702301
  0.8003399932268043  0.5553644975560857  0.3328033944573932
  0.8003106853574590  0.5553728155877270  0.6664222874874416
  0.8003626552964241  0.5554343720726540  0.9996158680008628
  0.8001257002704362  0.8889407847315511  0.3328886244458976
  0.8000908269515726  0.8889035703897580  0.6662634137685155
  0.8001418990220237  0.8889686544749344  0.9995426891391308
  0.0996207984948043  0.2774221297178793  0.1662811762133912
  0.0996456730073422  0.2775741295358729  0.4997029698033514
  0.0997795268592141  0.2775145969104521  0.8330254391720846
  0.0986451211123006  0.6113426096752207  0.1663235469350425
  0.0984003584866550  0.6111936091477906  0.4998740140707237
  0.0993072928011177  0.6114630448165532  0.8332083565581170
  0.0995791634358212  0.9447502122134671  0.1662263901736895
  0.0996679145295669  0.9447134547412351  0.4996158711834767
  0.0997783191794716  0.9445945273156023  0.8329036761106192
  0.2993962445911740  0.2764204639367097  0.1663136950008411
  0.2991971428349772  0.2763333661317842  0.4998817665818232
  0.2998875553434154  0.2769785526796508  0.8332227606284229
  0.2946666728575030  0.6141197742342565  0.1607472477455258
  0.2901063198600854  0.6166535935507653  0.5060752445871717
  0.2998820949273655  0.6111991127468872  0.8344229934416943
  0.2998466760475247  0.9448189393372659  0.1662833347088480
  0.3000154426023485  0.9447756214153957  0.4997127509970498
  0.2998449516625610  0.9446752605168063  0.8330374398520443
  0.5006037964088302  0.2764204639367097  0.1663136950008411
  0.5008028691650207  0.2763333661317842  0.4998817665818232
  0.5001124866565851  0.2769785526796508  0.8332227606284229
  0.5053333091424993  0.6141197742342565  0.1607472477455258
  0.5098936921399129  0.6166535935507653  0.5060752445871717
  0.5001179170726329  0.6111991127468872  0.8344229934416943
  0.5001533359524736  0.9448189393372659  0.1662833347088480
  0.4999845993976452  0.9447756214153957  0.4997127509970498
  0.5001550903374395  0.9446752605168063  0.8330374398520443
  0.7003791835051910  0.2774221297178793  0.1662811762133912
  0.7003542869926588  0.2775741295358729  0.4997029698033514
  0.7002204701407865  0.2775145969104521  0.8330254391720846
  0.7013548528876946  0.6113426096752207  0.1663235469350425
  0.7015996095133463  0.6111936091477906  0.4998740140707237
  0.7006926891988777  0.6114630448165532  0.8332083565581170
  0.7004208115641847  0.9447502122134671  0.1662263901736895
  0.7003320754704366  0.9447134547412351  0.4996158711834767
  0.7002216408205295  0.9445945273156023  0.8329036761106192
  0.8999999759999966  0.2776220395450801  0.1662159049038946
  0.8999999759999966  0.2775940034346239  0.4996566908296355
  0.8999999759999966  0.2776780191172312  0.8329360701048275
  0.8999999759999966  0.6112398225945699  0.1662548833069508
  0.8999999759999966  0.6111682563463871  0.4996685218988277
  0.8999999759999966  0.6112124908875994  0.8329446629420431
  0.8999999759999966  0.9445433384833403  0.1662039848248422
  0.8999999759999966  0.9445154359566630  0.4995677860519159
  0.8999999759999966  0.9445313738710545  0.8328802892007873
  0.9998187859051696  0.1110742110999299  0.1662059062485911
  0.9998777252868896  0.1110958389573859  0.4995852481344493
  0.9998939525030937  0.1110620762188252  0.8328859887706710
  0.9996814223887429  0.4442666546564996  0.1662883766778581
  0.9997653525872547  0.4441462108807979  0.4997222950296188
  0.9997822194473064  0.4443783003419873  0.8330414348180123
  0.9997197196673367  0.7780269651225176  0.1662741775603285
  0.9997577161003093  0.7779683994859851  0.4996139842546991
  0.9997815095723017  0.7779798876835119  0.8329489923804125
  0.1996782786889103  0.1107490574094266  0.1662319248406295
  0.1997702222671566  0.1107909491212152  0.4996397748870762
  0.1998282955480591  0.1109495672686488  0.8329317777928171
  0.1991543924761532  0.4439491399632473  0.1659559161956838
  0.1993375024503478  0.4440595707544271  0.5009489857574386
  0.1993092701398855  0.4440515758910678  0.8334853400508352
  0.1990581851586599  0.7789553825879126  0.1663151611967770
  0.1990676837115379  0.7791723573685391  0.4998663265788216
  0.1993191340651036  0.7782780599378785  0.8332122696379108
  0.4000000059999991  0.1108654225292170  0.1662840065506483
  0.4000000059999991  0.1109627005612694  0.4996602334822241
  0.4000000059999991  0.1108826307046185  0.8329924826404692
  0.4000000059999991  0.4384542627523784  0.1607393973651121
  0.4000000059999991  0.4333931089296550  0.5060840905373281
  0.4000000059999991  0.4442990256435304  0.8344289383600593
  0.4000000059999991  0.7787591397065815  0.1659485955138978
  0.4000000059999991  0.7785549285968495  0.5009510555705198
  0.4000000059999991  0.7785669962599437  0.8334907218425750
  0.6003217633110904  0.1107490574094266  0.1662319248406295
  0.6002298197328439  0.1107909491212152  0.4996397748870762
  0.6001717154519430  0.1109495672686488  0.8329317777928171
  0.6008456195238451  0.4439491399632473  0.1659559161956838
  0.6006625095496578  0.4440595707544271  0.5009489857574386
  0.6006907268601148  0.4440515758910678  0.8334853400508352
  0.6009418568413407  0.7789553825879126  0.1663151611967770
  0.6009323132884623  0.7791723573685391  0.4998663265788216
  0.6006809229348948  0.7782780599378785  0.8332122696379108
  0.8001812260948357  0.1110742110999299  0.1662059062485911
  0.8001222867131086  0.1110958389573859  0.4995852481344493
  0.8001060594969045  0.1110620762188252  0.8328859887706710
  0.8003185886112516  0.4442666546564996  0.1662883766778581
  0.8002346594127434  0.4441462108807979  0.4997222950296188
  0.8002177925526918  0.4443783003419873  0.8330414348180123
  0.8002802923326614  0.7780269651225176  0.1662741775603285
  0.8002422958996960  0.7779683994859851  0.4996139842546991
  0.8002185024276964  0.7779798876835119  0.8329489923804125
  0.0997674157626522  0.0555864395414723  0.1251423207479886
  0.0998996225925343  0.0555927020395166  0.4584715921236939
  0.0999293428197095  0.0555715441588086  0.7917956166672903
  0.0996129811698210  0.3886078941058619  0.1253709279852904
  0.1002725590561968  0.3889884094126760  0.4586698607913611
  0.0997920321880929  0.3887421531512223  0.7919885329768906
  0.0999089946544108  0.7222764779016858  0.1254387944572968
  0.1002183262955452  0.7220744686009767  0.4587083452180987
  0.0998823815887563  0.7222897707173894  0.7918629186256527
  0.2999404316434999  0.0557122202500520  0.1252506935961557
  0.3000345018838678  0.0556750916400111  0.4585079855478795
  0.2999562048605955  0.0556280804074956  0.7918640065857696
  0.2983436273158526  0.3875472873539726  0.1242083175749480
  0.2998051832398555  0.3893013968691139  0.4585096417474546
  0.2999848495515504  0.3887919882038884  0.7935556337052128
  0.2996394161792150  0.7242962336117533  0.1242068712754349
  0.3004847893012635  0.7222045594736555  0.4585054249283190
  0.2999265643935288  0.7222976011479710  0.7935572923768391
  0.5000595803564981  0.0557122202500520  0.1252506935961557
  0.4999655101161375  0.0556750916400111  0.4585079855478795
  0.5000438071394097  0.0556280804074956  0.7918640065857696
  0.5016563846841454  0.3875472873539726  0.1242083175749480
  0.5001947987601402  0.3893013968691139  0.4585096417474546
  0.5000151624484479  0.3887919882038884  0.7935556337052128
  0.5003606258207858  0.7242962336117533  0.1242068712754349
  0.4995152226987347  0.7222045594736555  0.4585054249283190
  0.5000734476064695  0.7222976011479710  0.7935572923768391
  0.7002326032373432  0.0555864395414723  0.1251423207479886
  0.7001003744074661  0.0555927020395166  0.4584715921236939
  0.7000706691802890  0.0555715441588086  0.7917956166672903
  0.7003870158301795  0.3886078941058619  0.1253709279852904
  0.6997274229437992  0.3889884094126760  0.4586698607913611
  0.7002079428119058  0.3887421531512223  0.7919885329768906
  0.7000909873455923  0.7222764779016858  0.1254387944572968
  0.6997816787044562  0.7220744686009767  0.4587083452180987
  0.7001175774112409  0.7222897707173894  0.7918629186256527
  0.8999999759999966  0.0555032208242634  0.1251548514851328
  0.8999999759999966  0.0555329744343140  0.4584872796092112
  0.8999999759999966  0.0555267486101580  0.7917763188720975
  0.8999999759999966  0.3887281901827803  0.1252355408422200
  0.8999999759999966  0.3887277484611815  0.4585000702562727
  0.8999999759999966  0.3888220090856788  0.7918711592844810
  0.8999999759999966  0.7221882227472939  0.1252452743935210
  0.8999999759999966  0.7220802809625878  0.4585117940801470
  0.8999999759999966  0.7221945329602604  0.7918321893224887
 -0.0001444116656364  0.2221181177947655  0.1251822190056248
 -0.0000456032769129  0.2222295055001002  0.4584877090851300
 -0.0000691007180834  0.2221701045324799  0.7918362179316415
 -0.0003830642803926  0.5553533441032059  0.1252790193063135
 -0.0001794976494829  0.5552260771831355  0.4584463680888371
 -0.0000699683712860  0.5554775862948231  0.7918752120167377
 -0.0000695747611681  0.8888826591407407  0.1251942419347354
  0.0000128100967709  0.8888289837551739  0.4584954398714334
 -0.0000310433732662  0.8888950949086407  0.7918040260665257
  0.1995560287236626  0.2218151409998164  0.1252811218709239
  0.1996663092532225  0.2220934560298961  0.4584500954269578
  0.1998788716541927  0.2221380214124733  0.7918764104418646
  0.1980470818193771  0.5548163641827389  0.1242027315788075
  0.2003281466327897  0.5551677053941928  0.4585088344514373
  0.1999332356759680  0.5555775946491277  0.7935427595843618
  0.1997902405208858  0.8894738005052020  0.1252833920513573
  0.2000625546038441  0.8892711852544872  0.4584552902412339
  0.1999538140135445  0.8890394227603988  0.7918712649520261
  0.4000000059999991  0.2221636740835785  0.1254391670477026
  0.4000000059999991  0.2225308847919091  0.4587056903361929
  0.4000000059999991  0.2220999240952671  0.7918944493546266
  0.4000000059999991  0.5555427318117303  0.1315641748623391
  0.4000000059999991  0.5555525058290141  0.7933757391398109
  0.4000000059999991  0.8894018439168683  0.1253750352270746
  0.4000000059999991  0.8886541771283605  0.4586729525123640
  0.4000000059999991  0.8891733546079881  0.7920081442072144
  0.6004439832763355  0.2218151409998164  0.1252811218709239
  0.6003337177467729  0.2220934560298961  0.4584500954269578
  0.6001211553458103  0.2221380214124733  0.7918764104418646
  0.6019529151806231  0.5548163641827389  0.1242027315788075
  0.5996719103672085  0.5551677053941928  0.4585088344514373
  0.6000667763240305  0.5555775946491277  0.7935427595843618
  0.6002098014791148  0.8894738005052020  0.1252833920513573
  0.5999375023961541  0.8892711852544872  0.4584552902412339
  0.6000462279864559  0.8890394227603988  0.7918712649520261
  0.8001444236656347  0.2221181177947655  0.1251822190056248
  0.8000456152769108  0.2222295055001002  0.4584877090851300
  0.8000691397180872  0.2221701045324799  0.7918362179316415
  0.8003830762803905  0.5553533441032059  0.1252790193063135
  0.8001795376494835  0.5552260771831355  0.4584463680888371
  0.8000699623712824  0.5554775862948231  0.7918752120167377
  0.8000696457611675  0.8888826591407407  0.1251942419347354
  0.7999872279032294  0.8888289837551739  0.4584954398714334
  0.8000310343732663  0.8888950949086407  0.7918040260665257
  0.0999627711939765  0.2777080241227532  0.2919586604201485
  0.0999718776904568  0.2776959520020222  0.6252006811482387
  0.0999020070918550  0.2775760611757129  0.9586136736720404
  0.0999552494311324  0.6110377645370084  0.2921137480138457
  0.1001725532807222  0.6109347897568139  0.6253759468898611
  0.0994624102314007  0.6113913744855740  0.9585940556832138
  0.0998595072261751  0.9444336467768204  0.2918578627966441
  0.0999471109273654  0.9443808192937004  0.6251318035159794
  0.0998180305523407  0.9444813732086002  0.9584812025682641
  0.2998934853378162  0.2776459246775353  0.2921104088563752
  0.2999436304096353  0.2779159652621161  0.6253921819320379
  0.2999397565248245  0.2770527830768620  0.9586189534116516
  0.2974020768116167  0.6125456975028222  0.2893870688844044
  0.2996383518763431  0.6112905657944645  0.6281395073232595
  0.3000987940751745  0.6110400502143650  0.9606609652354766
  0.3000093517034774  0.9444057147625942  0.2919649592374685
  0.2999945692376380  0.9444410415655180  0.6252041792672586
  0.2998757454386551  0.9444919888171174  0.9586255119340003
  0.5001065266621820  0.2776459246775353  0.2921104088563752
  0.5000563815903699  0.2779159652621161  0.6253921819320379
  0.5000602554751805  0.2770527830768620  0.9586189534116516
  0.5025979651883840  0.6125456975028222  0.2893870688844044
  0.5003616601236625  0.6112905657944645  0.6281395073232595
  0.4999012179248237  0.6110400502143650  0.9606609652354766
  0.4999906302965181  0.9444057147625942  0.2919649592374685
  0.5000054427623603  0.9444410415655180  0.6252041792672586
  0.5001242665613431  0.9444919888171174  0.9586255119340003
  0.7000372188060202  0.2777080241227532  0.2919586604201485
  0.7000280823095442  0.2776959520020222  0.6252006811482387
  0.7000979599081431  0.2775760611757129  0.9586136736720404
  0.7000447175688652  0.6110377645370084  0.2921137480138457
  0.6998274067192715  0.6109347897568139  0.6253759468898611
  0.7005375637686013  0.6113913744855740  0.9585940556832138
  0.7001404747738278  0.9444336467768204  0.2918578627966441
  0.7000528640726332  0.9443808192937004  0.6251318035159794
  0.7001819514476620  0.9444813732086002  0.9584812025682641
  0.8999999759999966  0.2777221698396221  0.2918439166672411
  0.8999999759999966  0.2777179682637226  0.6251919916412838
  0.8999999759999966  0.2777372621615390  0.9585167511097373
  0.8999999759999966  0.6111344892668822  0.2918956462464682
  0.8999999759999966  0.6111005575296269  0.6251458031733242
  0.8999999759999966  0.6111665576268688  0.9585248382083695
  0.8999999759999966  0.9443956928322603  0.2918457496739477
  0.8999999759999966  0.9443525061021875  0.6251193786885896
  0.8999999759999966  0.9444400903732272  0.9584712645604363
 -0.0000473897320753  0.1110726256020460  0.2918409302630167
 -0.0000195521257121  0.1110402699061142  0.6251348649209992
 -0.0000791386282606  0.1110531389413903  0.9584639910752537
  0.0000025219531132  0.4443699462935687  0.2919721181270104
 -0.0000148067874880  0.4443933234168506  0.6252057490042648
 -0.0001090726652138  0.4444301653152052  0.9586213178386355
  0.0000025496310151  0.7777258994309540  0.2919488704319716
  0.0000200149212671  0.7776936058661673  0.6251301319738710
 -0.0001293062346858  0.7778418647937275  0.9585475328407714
  0.1999408223373125  0.1109083516105892  0.2918765827004535
  0.1999867611018484  0.1110128653740103  0.6251500425740081
  0.1998740677864808  0.1109080067185373  0.9585084214443111
  0.2000513325871933  0.4444254326925850  0.2918603687571865
  0.2001312329276232  0.4444741050840578  0.6261839734719004
  0.1994557295101197  0.4440891313205627  0.9587174634182405
  0.1999901129267910  0.7778540746473399  0.2921096728280578
  0.2002027719584065  0.7776852623337718  0.6253757377726914
  0.1994322377250533  0.7781134890843604  0.9586040431509504
  0.4000000059999991  0.1110755731204131  0.2919584879399770
  0.4000000059999991  0.1111093266175441  0.6251742266196495
  0.4000000059999991  0.1108773786019958  0.9585928373676172
  0.4000000059999991  0.4414511306417586  0.2893891261961247
  0.4000000059999991  0.4439799971335682  0.6281507728393838
  0.4000000059999991  0.4444767574153696  0.9606698381254867
  0.4000000059999991  0.7776954416968902  0.2918455536778697
  0.4000000059999991  0.7776093101949266  0.6261870928035074
  0.4000000059999991  0.7783654050488134  0.9587217656495955
  0.6000591896626927  0.1109083516105892  0.2918765827004535
  0.6000132808981516  0.1110128653740103  0.6251500425740081
  0.6001259742135198  0.1109080067185373  0.9585084214443111
  0.5999487094128070  0.4444254326925850  0.2918603687571865
  0.5998688240723822  0.4444741050840578  0.6261839734719004
  0.6005443124898813  0.4440891313205627  0.9587174634182405
  0.6000098990732073  0.7778540746473399  0.2921096728280578
  0.5997972250415943  0.7776852623337718  0.6253757377726914
  0.6005677892749426  0.7781134890843604  0.9586040431509504
  0.8000474017320804  0.1110726256020460  0.2918409302630167
  0.8000195931257091  0.1110402699061142  0.6251348649209992
  0.8000791406282578  0.1110531389413903  0.9584639910752537
  0.7999974900468847  0.4443699462935687  0.2919721181270104
  0.8000148397874843  0.4443933234168506  0.6252057490042648
  0.8001090836652158  0.4444301653152052  0.9586213178386355
  0.7999974543689825  0.7777258994309540  0.2919488704319716
  0.7999799690787358  0.7776936058661673  0.6251301319738710
  0.8001293272346881  0.7778418647937275  0.9585475328407714
  0.4000000059999991  0.5555277487568597  0.4771356670307252
  0.4000000059999991  0.5554769459851262  0.4135245634457461
 
  0.00000000E+00  0.00000000E+00  0.00000000E+00
  0.00000000E+00  0.00000000E+00  0.00000000E+00
  0.00000000E+00  0.00000000E+00  0.00000000E+00
  0.00000000E+00  0.00000000E+00  0.00000000E+00
  0.00000000E+00  0.00000000E+00  0.00000000E+00
  0.00000000E+00  0.00000000E+00  0.00000000E+00
  0.00000000E+00  0.00000000E+00  0.00000000E+00
  0.00000000E+00  0.00000000E+00  0.00000000E+00
  0.00000000E+00  0.00000000E+00  0.00000000E+00
  0.00000000E+00  0.00000000E+00  0.00000000E+00
  0.00000000E+00  0.00000000E+00  0.00000000E+00
  0.00000000E+00  0.00000000E+00  0.00000000E+00
  0.00000000E+00  0.00000000E+00  0.00000000E+00
  0.00000000E+00  0.00000000E+00  0.00000000E+00
  0.00000000E+00  0.00000000E+00  0.00000000E+00
  0.00000000E+00  0.00000000E+00  0.00000000E+00
  0.00000000E+00  0.00000000E+00  0.00000000E+00
  0.00000000E+00  0.00000000E+00  0.00000000E+00
  0.00000000E+00  0.00000000E+00  0.00000000E+00
  0.00000000E+00  0.00000000E+00  0.00000000E+00
  0.00000000E+00  0.00000000E+00  0.00000000E+00
  0.00000000E+00  0.00000000E+00  0.00000000E+00
  0.00000000E+00  0.00000000E+00  0.00000000E+00
  0.00000000E+00  0.00000000E+00  0.00000000E+00
  0.00000000E+00  0.00000000E+00  0.00000000E+00
  0.00000000E+00  0.00000000E+00  0.00000000E+00
  0.00000000E+00  0.00000000E+00  0.00000000E+00
  0.00000000E+00  0.00000000E+00  0.00000000E+00
  0.00000000E+00  0.00000000E+00  0.00000000E+00
  0.00000000E+00  0.00000000E+00  0.00000000E+00
  0.00000000E+00  0.00000000E+00  0.00000000E+00
  0.00000000E+00  0.00000000E+00  0.00000000E+00
  0.00000000E+00  0.00000000E+00  0.00000000E+00
  0.00000000E+00  0.00000000E+00  0.00000000E+00
  0.00000000E+00  0.00000000E+00  0.00000000E+00
  0.00000000E+00  0.00000000E+00  0.00000000E+00
  0.00000000E+00  0.00000000E+00  0.00000000E+00
  0.00000000E+00  0.00000000E+00  0.00000000E+00
  0.00000000E+00  0.00000000E+00  0.00000000E+00
  0.00000000E+00  0.00000000E+00  0.00000000E+00
  0.00000000E+00  0.00000000E+00  0.00000000E+00
  0.00000000E+00  0.00000000E+00  0.00000000E+00
  0.00000000E+00  0.00000000E+00  0.00000000E+00
  0.00000000E+00  0.00000000E+00  0.00000000E+00
  0.00000000E+00  0.00000000E+00  0.00000000E+00
  0.00000000E+00  0.00000000E+00  0.00000000E+00
  0.00000000E+00  0.00000000E+00  0.00000000E+00
  0.00000000E+00  0.00000000E+00  0.00000000E+00
  0.00000000E+00  0.00000000E+00  0.00000000E+00
  0.00000000E+00  0.00000000E+00  0.00000000E+00
  0.00000000E+00  0.00000000E+00  0.00000000E+00
  0.00000000E+00  0.00000000E+00  0.00000000E+00
  0.00000000E+00  0.00000000E+00  0.00000000E+00
  0.00000000E+00  0.00000000E+00  0.00000000E+00
  0.00000000E+00  0.00000000E+00  0.00000000E+00
  0.00000000E+00  0.00000000E+00  0.00000000E+00
  0.00000000E+00  0.00000000E+00  0.00000000E+00
  0.00000000E+00  0.00000000E+00  0.00000000E+00
  0.00000000E+00  0.00000000E+00  0.00000000E+00
  0.00000000E+00  0.00000000E+00  0.00000000E+00
  0.00000000E+00  0.00000000E+00  0.00000000E+00
  0.00000000E+00  0.00000000E+00  0.00000000E+00
  0.00000000E+00  0.00000000E+00  0.00000000E+00
  0.00000000E+00  0.00000000E+00  0.00000000E+00
  0.00000000E+00  0.00000000E+00  0.00000000E+00
  0.00000000E+00  0.00000000E+00  0.00000000E+00
  0.00000000E+00  0.00000000E+00  0.00000000E+00
  0.00000000E+00  0.00000000E+00  0.00000000E+00
  0.00000000E+00  0.00000000E+00  0.00000000E+00
  0.00000000E+00  0.00000000E+00  0.00000000E+00
  0.00000000E+00  0.00000000E+00  0.00000000E+00
  0.00000000E+00  0.00000000E+00  0.00000000E+00
  0.00000000E+00  0.00000000E+00  0.00000000E+00
  0.00000000E+00  0.00000000E+00  0.00000000E+00
  0.00000000E+00  0.00000000E+00  0.00000000E+00
  0.00000000E+00  0.00000000E+00  0.00000000E+00
  0.00000000E+00  0.00000000E+00  0.00000000E+00
  0.00000000E+00  0.00000000E+00  0.00000000E+00
  0.00000000E+00  0.00000000E+00  0.00000000E+00
  0.00000000E+00  0.00000000E+00  0.00000000E+00
  0.00000000E+00  0.00000000E+00  0.00000000E+00
  0.00000000E+00  0.00000000E+00  0.00000000E+00
  0.00000000E+00  0.00000000E+00  0.00000000E+00
  0.00000000E+00  0.00000000E+00  0.00000000E+00
  0.00000000E+00  0.00000000E+00  0.00000000E+00
  0.00000000E+00  0.00000000E+00  0.00000000E+00
  0.00000000E+00  0.00000000E+00  0.00000000E+00
  0.00000000E+00  0.00000000E+00  0.00000000E+00
  0.00000000E+00  0.00000000E+00  0.00000000E+00
  0.00000000E+00  0.00000000E+00  0.00000000E+00
  0.00000000E+00  0.00000000E+00  0.00000000E+00
  0.00000000E+00  0.00000000E+00  0.00000000E+00
  0.00000000E+00  0.00000000E+00  0.00000000E+00
  0.00000000E+00  0.00000000E+00  0.00000000E+00
  0.00000000E+00  0.00000000E+00  0.00000000E+00
  0.00000000E+00  0.00000000E+00  0.00000000E+00
  0.00000000E+00  0.00000000E+00  0.00000000E+00
  0.00000000E+00  0.00000000E+00  0.00000000E+00
  0.00000000E+00  0.00000000E+00  0.00000000E+00
  0.00000000E+00  0.00000000E+00  0.00000000E+00
  0.00000000E+00  0.00000000E+00  0.00000000E+00
  0.00000000E+00  0.00000000E+00  0.00000000E+00
  0.00000000E+00  0.00000000E+00  0.00000000E+00
  0.00000000E+00  0.00000000E+00  0.00000000E+00
  0.00000000E+00  0.00000000E+00  0.00000000E+00
  0.00000000E+00  0.00000000E+00  0.00000000E+00
  0.00000000E+00  0.00000000E+00  0.00000000E+00
  0.00000000E+00  0.00000000E+00  0.00000000E+00
  0.00000000E+00  0.00000000E+00  0.00000000E+00
  0.00000000E+00  0.00000000E+00  0.00000000E+00
  0.00000000E+00  0.00000000E+00  0.00000000E+00
  0.00000000E+00  0.00000000E+00  0.00000000E+00
  0.00000000E+00  0.00000000E+00  0.00000000E+00
  0.00000000E+00  0.00000000E+00  0.00000000E+00
  0.00000000E+00  0.00000000E+00  0.00000000E+00
  0.00000000E+00  0.00000000E+00  0.00000000E+00
  0.00000000E+00  0.00000000E+00  0.00000000E+00
  0.00000000E+00  0.00000000E+00  0.00000000E+00
  0.00000000E+00  0.00000000E+00  0.00000000E+00
  0.00000000E+00  0.00000000E+00  0.00000000E+00
  0.00000000E+00  0.00000000E+00  0.00000000E+00
  0.00000000E+00  0.00000000E+00  0.00000000E+00
  0.00000000E+00  0.00000000E+00  0.00000000E+00
  0.00000000E+00  0.00000000E+00  0.00000000E+00
  0.00000000E+00  0.00000000E+00  0.00000000E+00
  0.00000000E+00  0.00000000E+00  0.00000000E+00
  0.00000000E+00  0.00000000E+00  0.00000000E+00
  0.00000000E+00  0.00000000E+00  0.00000000E+00
  0.00000000E+00  0.00000000E+00  0.00000000E+00
  0.00000000E+00  0.00000000E+00  0.00000000E+00
  0.00000000E+00  0.00000000E+00  0.00000000E+00
  0.00000000E+00  0.00000000E+00  0.00000000E+00
  0.00000000E+00  0.00000000E+00  0.00000000E+00
  0.00000000E+00  0.00000000E+00  0.00000000E+00
  0.00000000E+00  0.00000000E+00  0.00000000E+00
  0.00000000E+00  0.00000000E+00  0.00000000E+00
  0.00000000E+00  0.00000000E+00  0.00000000E+00
  0.00000000E+00  0.00000000E+00  0.00000000E+00
  0.00000000E+00  0.00000000E+00  0.00000000E+00
  0.00000000E+00  0.00000000E+00  0.00000000E+00
  0.00000000E+00  0.00000000E+00  0.00000000E+00
  0.00000000E+00  0.00000000E+00  0.00000000E+00
  0.00000000E+00  0.00000000E+00  0.00000000E+00
  0.00000000E+00  0.00000000E+00  0.00000000E+00
  0.00000000E+00  0.00000000E+00  0.00000000E+00
  0.00000000E+00  0.00000000E+00  0.00000000E+00
  0.00000000E+00  0.00000000E+00  0.00000000E+00
  0.00000000E+00  0.00000000E+00  0.00000000E+00
  0.00000000E+00  0.00000000E+00  0.00000000E+00
  0.00000000E+00  0.00000000E+00  0.00000000E+00
  0.00000000E+00  0.00000000E+00  0.00000000E+00
  0.00000000E+00  0.00000000E+00  0.00000000E+00
  0.00000000E+00  0.00000000E+00  0.00000000E+00
  0.00000000E+00  0.00000000E+00  0.00000000E+00
  0.00000000E+00  0.00000000E+00  0.00000000E+00
  0.00000000E+00  0.00000000E+00  0.00000000E+00