GaN                                     
   1.00000000000000     
     3.1963114663653687    0.0000000000000000    0.0000000000000000
    -1.5981557331826843    2.7680869282798994   -0.0000000000000000
     0.0000000000000000    0.0000000000000000    5.2106003069912692
   Ga   N 
     2     2
Direct
  0.3333333333333357  0.6666666666666643 -0.0005539944591656
  0.6666666666666643  0.3333333333333357  0.4994460055408343
  0.3333333333333357  0.6666666666666643  0.3755539944591657
  0.6666666666666643  0.3333333333333357  0.8755539944591656
 
  0.00000000E+00  0.00000000E+00  0.00000000E+00
  0.00000000E+00  0.00000000E+00  0.00000000E+00
  0.00000000E+00  0.00000000E+00  0.00000000E+00
  0.00000000E+00  0.00000000E+00  0.00000000E+00
