GaN                                     
   1.00000000000000     
     3.1890000000000000    0.0000000000000000    0.0000000000000000
    -1.5945000000000000    2.7617550126685748    0.0000000000000000
     0.0000000000000000    0.0000000000000000    5.1850000000000000
   Ga   N 
     2     2
Direct
  0.3333333333333333  0.6666666666666667  0.0000000000000000
  0.6666666666666667  0.3333333333333333  0.5000000000000000
  0.3333333333333333  0.6666666666666667  0.3750000000000000
  0.6666666666666667  0.3333333333333333  0.8750000000000000

