GaN                                     
    1.000000000000000     
    15.8909244537000003    0.0000000000000000    0.0000000000000000
     0.0000000000000000   16.5143318175999987    0.0000000000000000
     0.0000000000000000    0.0000000000000000   15.4982528686999999
   Ga   N    H 
   179   180     1
Direct
  0.0999999893266610  0.0556695246322623  0.3329984230535132
  0.0999999514864833  0.0556353784216814  0.6663332435900299
  0.1000000290673843  0.0556021391258491  0.9997187047335013
  0.1000000001258727  0.3888981989720567  0.3327405908612341
  0.0999999158851209  0.3888731124907336  0.6662154140912818
  0.1000000393331234  0.3888879869977057  0.9995763336431915
  0.0999999700053409  0.7222458163702670  0.3329504079875633
  0.1000000079618052  0.7222951258956306  0.6663644959502859
  0.1000000302068006  0.7222050750313630  0.9996959028291160
  0.3001464891218827  0.0556477214100850  0.3329100596980692
  0.2999536386791464  0.0555207841790244  0.6662965177304747
  0.3000371818080974  0.0555738995455334  0.9996750693808368
  0.3005623249107027  0.3890405411431792  0.3328751350782809
  0.2998029573121062  0.3888828081506642  0.6660277892041521
  0.3000498864917818  0.3888635962615793  0.9994141960506371
  0.2999996730557527  0.7221681137981664  0.3328920427258286
  0.2998684733788240  0.7222893847509745  0.6663528605252049
  0.3000054389518915  0.7222136805082296  0.9996710845634728
  0.5000507736892510  0.0554575932844103  0.3328167440144747
  0.5000125714307199  0.0553459264541781  0.6662647228772137
  0.5000000515788141  0.0554790995499132  0.9995828852128394
  0.5009762131265914  0.3893709462393355  0.3336499413642725
  0.4989528033887238  0.3882643877497270  0.6652621355029201
  0.5000002560533621  0.3888491249660684  0.9990840243911924
  0.5001195803982669  0.7215545682751342  0.3329469296971193
  0.4998657711537543  0.7223306833096438  0.6660797099190970
  0.5000289566759822  0.7221217896915629  0.9994463998195677
  0.6999492568720371  0.0554575696549103  0.3328163528201545
  0.6999875467227914  0.0553459719484006  0.6662643888580316
  0.6999999207960115  0.0554790947959002  0.9995825636287549
  0.6990240223410712  0.3893708774225439  0.3336480329657196
  0.7010472642481274  0.3882642861892729  0.6652625002417444
  0.6999996363306890  0.3888491592135592  0.9990837463495226
  0.6998804904845414  0.7215545493789164  0.3329467621655801
  0.7001342053959964  0.7223307136456751  0.6660798150471806
  0.6999710004249726  0.7221218010289763  0.9994462111038932
  0.8998535464518591  0.0556476546529719  0.3329093932163854
  0.9000462987546762  0.0555208825169761  0.6662960662318110
  0.8999628507849106  0.0555738932837188  0.9996745339506721
  0.8994377820185082  0.3890405606047311  0.3328738436711052
  0.9001968265300818  0.3888827796452111  0.6660273210241968
  0.8999501740875790  0.3888635799230565  0.9994135806173187
  0.9000003188320536  0.7221681168295078  0.3328919828911340
  0.9001315261123706  0.7222893613279677  0.6663529058095659
  0.8999945853434790  0.7222137299203299  0.9996708513655890
  0.9998250365176576  0.2223455074028988  0.3328764880769687
  0.9999739655774096  0.2222599733951720  0.6661427514844579
  0.9999748312712864  0.2222519346530180  0.9996169028121600
 -0.0000238241289253  0.5555435237618489  0.3328205502969728
  0.0000887181958504  0.5556343293132882  0.6663109715702131
  0.0000088051516615  0.5555122383202444  0.9996074011880051
  0.9999774862110987  0.8889553379629546  0.3330132260012942
  0.0000357116686004  0.8889563936608810  0.6663966364771129
 -0.0000078188118254  0.8889062776045359  0.9997543333857168
  0.2001749965197096  0.2223455452979234  0.3328771067855128
  0.2000258380800667  0.2222599125777423  0.6661432078569826
  0.2000252479831789  0.2222519588530769  0.9996172962480164
  0.2000237847033325  0.5555435016648077  0.3328207395449333
  0.1999112393708044  0.5556343771395386  0.6663110333648383
  0.1999912584618824  0.5555122253236235  0.9996076086485944
  0.2000225000960773  0.8889553627242283  0.3330133774131644
  0.1999642620347714  0.8889563506993234  0.6663967298855563
  0.2000078697199613  0.8889062643947797  0.9997545204652555
  0.4004961812433226  0.2225768134829272  0.3329313428715461
  0.3999230046453318  0.2220019457575062  0.6660245401228928
  0.4000428781121123  0.2222266483073056  0.9994119135831210
  0.4000261415237416  0.5554733380967416  0.3326523282359665
  0.3996998181936892  0.5556824138647046  0.6664643403533486
  0.4000261807577545  0.5554940286379640  0.9991892484811905
  0.4000834502055526  0.8886836266953011  0.3328850211866774
  0.3999527536775949  0.8888813147734140  0.6662956431757540
  0.4000317548615493  0.8888207976857944  0.9996546965359394
  0.5999999484181415  0.2222028398632616  0.3326283284059740
  0.6000002064231935  0.2218411572140977  0.6663943871888751
  0.5999999164004216  0.2221988132846374  0.9991595469967689
  0.6000000675218362  0.5543513028124494  0.3335150543326489
  0.5999999530883754  0.5566861520312407  0.6653124536569877
  0.5999999624317904  0.5555017339777154  0.9991008711808741
  0.6000000327173983  0.8885686346161749  0.3328588171846248
  0.6000000261161086  0.8887208502745220  0.6661661916019002
  0.5999999904872548  0.8887906510001059  0.9996004171464234
  0.7995039072213459  0.2225767045807244  0.3329298966618238
  0.8000769109336509  0.2220020821816470  0.6660237929490462
  0.7999571369650929  0.2222265946482547  0.9994112673674415
  0.7999738898486488  0.5554734456933796  0.3326519084535921
  0.8003001680358919  0.5556822093937301  0.6664643759129235
  0.7999737839149079  0.5554940987438480  0.9991888339835451
  0.7999165820902955  0.8886835632034187  0.3328847157050510
  0.8000472660604006  0.8888813745647850  0.6662954830359689
  0.7999682418498854  0.8888208231940862  0.9996543773733597
  0.1000000399596649  0.2778320475602922  0.1662676856563441
  0.0999999306354180  0.2778469552842869  0.4995046012676427
  0.0999999837417642  0.2778346260999214  0.8328851668597013
  0.1000000291000313  0.6111319079701814  0.1662711972516548
  0.0999999522252572  0.6113652379991126  0.4995885507983899
  0.1000000300185447  0.6111678558846927  0.8329993838016062
  0.1000000064073686  0.9445380830139161  0.1664084149526409
  0.0999999714586923  0.9446855114944942  0.4997139843312365
  0.1000000186747121  0.9445480416645637  0.8330925025662145
  0.3001337384571729  0.2778693583961884  0.1662418620097899
  0.3004637017483202  0.2780186521432482  0.4993702386475667
  0.2999893333662654  0.2778019168549624  0.8327769602153596
  0.3000697167032421  0.6110895980806771  0.1661186136356811
  0.2996685681013610  0.6113505189272881  0.4995955940037266
  0.2999058791930043  0.6112063340726608  0.8329863751554601
  0.3000626069965947  0.9444801808998332  0.1663645948928603
  0.3000271414703614  0.9444598256812866  0.4996471333163318
  0.3000230131512854  0.9445044906756740  0.8330379295486013
  0.5001293882088379  0.2778993934383144  0.1659501076904656
  0.5013508159996968  0.2781622528145032  0.4997503933768342
  0.4999938032873075  0.2778562487291796  0.8324649098199586
  0.5000375055106911  0.6109408228277083  0.1659597347782136
  0.4995836699177243  0.6097854876515545  0.4998354347328067
  0.5000636977728767  0.6111084323305896  0.8325189311518907
  0.5000362332754124  0.9444112676315509  0.1662604777878370
  0.5000396276019184  0.9441157872159540  0.4995448843528122
  0.5000063506944703  0.9444118303223256  0.8329380346452534
  0.6998705289179409  0.2778992548381885  0.1659492772631662
  0.6986493183033962  0.2781623433147594  0.4997488797864202
  0.7000062127315885  0.2778561651860681  0.8324648134906174
  0.6999624577155866  0.6109408427168923  0.1659594638934740
  0.7004164054011243  0.6097854747715017  0.4998357479622346
  0.6999362078139431  0.6111084101923321  0.8325187536629692
  0.6999637842185753  0.9444112462586355  0.1662602336525503
  0.6999604576961921  0.9441157933193595  0.4995446606781949
  0.6999936479934138  0.9444118502345432  0.8329378438828452
  0.8998663435007882  0.2778693200880440  0.1662408908149711
  0.8995361971538365  0.2780187196747134  0.4993690741293884
  0.9000106330376917  0.2778018840837466  0.8327764555283023
  0.8999303093909210  0.6110896698561991  0.1661182798655552
  0.9003313615824203  0.6113504870260983  0.4995957118439164
  0.9000941556311737  0.6112063208579495  0.8329862894087379
  0.8999374178738174  0.9444801455756722  0.1663641876839147
  0.8999728416452736  0.9444598444660889  0.4996468071275160
  0.8999770018562371  0.9445045214090615  0.8330376203612673
  0.9999612829250304  0.1111983166819973  0.1663441178235368
  0.9999025575609580  0.1112763600828708  0.4995905669699949
 -0.0000089518517699  0.1111997286041173  0.8329758688190999
  0.9999104651723344  0.4444538148165716  0.1662271648476444
  0.0000302368911712  0.4447982890855320  0.4995965882041967
 -0.0000062787975739  0.4444843637584124  0.8328667393672895
  0.9999869878238400  0.7778227462800057  0.1663562919324985
  0.0001010020595948  0.7780039183656439  0.4996651605143853
  0.0000221013766418  0.7778749970575621  0.8330661736085058
  0.2000387526060710  0.1111983593977832  0.1663445302830026
  0.2000973645588980  0.1112763365231734  0.4995909924057719
  0.2000089480260457  0.1111997137730954  0.8329762067093167
  0.2000896698274368  0.4444537686674942  0.1662276692416845
  0.1999695851087400  0.4447983226888934  0.4995968645030958
  0.2000062771947427  0.4444843909375739  0.8328669974007364
  0.2000130263373738  0.7778227370373662  0.1663564147585910
  0.1998989389227949  0.7780039195322174  0.4996651231791841
  0.1999779606168988  0.7778749802102455  0.8330662637924801
  0.4000765068167227  0.1112288283350341  0.1662765399608102
  0.4002575986787229  0.1109271352239109  0.4996130448349194
  0.4000300001269963  0.1111432125520000  0.8328794883938585
  0.4001612550366276  0.4445016667798750  0.1659449219430809
  0.4010514513969606  0.4454005726173591  0.4998014901552791
  0.4000419414538265  0.4444209009966724  0.8324913513908710
  0.4000905625761708  0.7776908952584649  0.1663008179812822
  0.3997508140838211  0.7776433689848561  0.4996516808823851
  0.3999998128971402  0.7777908608603653  0.8329275406497805
  0.5999999862600827  0.1111794571987107  0.1660801409030452
  0.6000000532858967  0.1106704609422487  0.4995388009541564
  0.6000000190470880  0.1109999435807963  0.8329193751023737
  0.5999998657289203  0.4444325401822420  0.1654390750951526
  0.5999999010860476  0.4444566568719104  0.8324056314913548
  0.6000000049891602  0.7776262361235659  0.1662530036756233
  0.6000000631828730  0.7771470520438176  0.4994070613389157
  0.5999999541983155  0.7778013943855663  0.8328161049230360
  0.7999235161433089  0.1112287074429374  0.1662757794251069
  0.7997424451373627  0.1109272112119495  0.4996121751325947
  0.7999699984387981  0.1111432401607003  0.8328789405821552
  0.7998388255134365  0.4445017856173035  0.1659439214109803
  0.7989484938289867  0.4454005335349662  0.4998003487759536
  0.7999580690753625  0.4444208633847736  0.8324911419780889
  0.7999094517671665  0.7776909024916585  0.1663004949699028
  0.8002491926929022  0.7776433602909539  0.4996517950091979
  0.8000001820370259  0.7777908908721789  0.8329273735454630
  0.1000000789761269  0.0556466949458472  0.1253754752848329
  0.1000000166101837  0.0558003235388541  0.4586701728329716
  0.1000000383240386  0.0556348588397134  0.7919881784236183
  0.1000000925518496  0.3889428075843362  0.1252457650420145
  0.0999999592154162  0.3889368259482027  0.4584579244414027
  0.1000000235587988  0.3889331284276792  0.7918424063703595
  0.1000000178421197  0.7222714516451255  0.1253396378605300
  0.0999999681022357  0.7224301885678233  0.4586130446380302
  0.1000000315978257  0.7222874327396537  0.7920105377695111
  0.3000401939488431  0.0556036791112960  0.1253479583043041
  0.3000885670266173  0.0556240455843997  0.4585954227367953
  0.2999883923681070  0.0555995320759646  0.7919414459780100
  0.3000464729409373  0.3889218045312059  0.1250562045850064
  0.2999674375226036  0.3892067884263414  0.4586127858560180
  0.2999590093743533  0.3888975863234863  0.7916907090994878
  0.2999965215394007  0.7222693123366966  0.1252954274740021
  0.2997382532342008  0.7223977795910150  0.4585728786271593
  0.2999447211244711  0.7222968985087254  0.7919714937901223
  0.4999859384215939  0.0555151231875074  0.1252147586984151
  0.5000174812606636  0.0551605514410374  0.4585102328715217
  0.4999869454326622  0.0555010452372275  0.7918890710535613
  0.4999957490555168  0.3888907426173532  0.1245827741446777
  0.4944222684333998  0.3858146227731437  0.4562308159926670
  0.5001113576989091  0.3889745933350063  0.7909006537126021
  0.5000169511354364  0.7221484488847435  0.1250868411552222
  0.4997136982342170  0.7220059332523571  0.4586654601026602
  0.4999949559780727  0.7222732328145638  0.7917429752719166
  0.7000139502062455  0.0555150940915682  0.1252144391154668
  0.6999824855657797  0.0551605308172962  0.4585098598916833
  0.7000130208182510  0.0555010362281993  0.7918887767569911
  0.7000041073517638  0.3888908089378678  0.1245825138902247
  0.7055780739939159  0.3858145432499617  0.4562291568651481
  0.6998885637124246  0.3889745818704494  0.7909007426201030
  0.6999830266273045  0.7221484696998516  0.1250866590609547
  0.7002863599385457  0.7220058529864212  0.4586653955392918
  0.7000049977358208  0.7222732537852511  0.7917429921117155
  0.8999598825512813  0.0556036148927424  0.1253474359328741
  0.8999114681625383  0.0556240002354927  0.4585948232495274
  0.9000116176171855  0.0555995421033863  0.7919410312540947
  0.8999536443417497  0.3889218454714302  0.1250555836878454
  0.9000325617298598  0.3892068661415569  0.4586117171502525
  0.9000409427283611  0.3888975983503553  0.7916902966906163
  0.9000035116252441  0.7222693676753628  0.1252951694143939
  0.9002617215783630  0.7223977279699789  0.4585728567558765
  0.9000552992368814  0.7222968916806041  0.7919714632629800
  0.9999488906763940  0.2223031650203417  0.1252896940902737
  0.9998282843939125  0.2224184074707629  0.4585834232041310
  0.0000202047041632  0.2222703845193819  0.7918132873020481
  0.0000142412363272  0.5555661061134843  0.1252291662335742
  0.0001857010392076  0.5557352207346322  0.4585062498206687
  0.0000313461145195  0.5556051057949957  0.7919239701604457
 -0.0000021195399728  0.8889623640917202  0.1254071358600110
  0.0000473774787553  0.8891068977595392  0.4586766796828172
  0.0000100933101689  0.8889794267024996  0.7920456856646676
  0.2000512910114286  0.2223031917426534  0.1252900933990757
  0.2001717453521576  0.2224184109562340  0.4585839721582018
  0.1999798126116296  0.2222703505220090  0.7918136493342648
  0.1999858047169333  0.5555660262887362  0.1252293898431142
  0.1998142008210510  0.5557351994862469  0.4585063935591559
  0.1999686874978877  0.5556050908699376  0.7919240623018189
  0.2000021946527857  0.8889623794632099  0.1254073239497807
  0.1999526395183438  0.8891069353669891  0.4586768159968966
  0.1999899568972171  0.8889794182924489  0.7920457930480453
  0.4000490954787104  0.2222667111419936  0.1250580182411120
  0.4003003630417558  0.2220403680583325  0.4586530082807456
  0.3999622254835171  0.2222231245464329  0.7916928515041715
  0.3999733797803074  0.5555727632625216  0.1247534913549410
  0.3992591741424987  0.5559368987124522  0.4583795062410988
  0.3998810394919367  0.5556414289717564  0.7919488993020618
  0.4000119288160560  0.8888436503906959  0.1253155864910956
  0.3999732120367508  0.8887582804142264  0.4585631109838983
  0.3999800775732786  0.8889055697472038  0.7919357234069705
  0.5999998436871571  0.2221899976437572  0.1247330062196980
  0.5999998925531760  0.2213961461650855  0.4583531469301141
  0.6000000115975411  0.2220922849479465  0.7918948039160841
  0.5999999737545211  0.5555432844560764  0.1246058641606210
  0.6000000883447182  0.5619667419109562  0.4561373129186573
  0.5999999416729579  0.5554401341587993  0.7909392351110154
  0.5999999790022249  0.8887849514525050  0.1252548208248694
  0.6000000068801224  0.8884624959990183  0.4585591110735030
  0.5999999885128519  0.8888912710296287  0.7918302933429545
  0.7999509161396642  0.2222666496192743  0.1250573609249053
  0.7996996768592090  0.2220403182738942  0.4586517368718281
  0.8000377130979179  0.2222231753699489  0.7916922520964468
  0.8000266200281797  0.5555729433065283  0.1247530423681662
  0.8007408045265544  0.5559370220597353  0.4583791419774251
  0.8001189521380707  0.5556414073390856  0.7919488475285063
  0.7999880680834971  0.8888436457527881  0.1253152656353505
  0.8000268023757185  0.8887582015165751  0.4585628681957643
  0.8000199171390961  0.8889055848115592  0.7919355389378868
  0.1000000652987024  0.2777480327856718  0.2919444584066933
  0.0999999930737355  0.2778052668227619  0.6251436595760937
  0.1000000755496959  0.2777769378373744  0.9585526475695293
  0.1000000030781898  0.6111322753620737  0.2919186811003863
  0.0999999663319478  0.6112363045296912  0.6252488606870993
  0.1000000496837262  0.6111079286496689  0.9586236994898414
  0.1000000063513834  0.9445292929195058  0.2920676570436710
  0.1000000106631092  0.9445391834119155  0.6253564783152369
  0.1000000503554436  0.9444808497668583  0.9587463888860356
  0.3002039927464118  0.2778506855889451  0.2919312207054880
  0.3000587294795564  0.2777928809134191  0.6250750067747651
  0.3000022317088685  0.2777527130270585  0.9584278384807261
  0.2999406088074434  0.6111283336132401  0.2917764693240560
  0.2998357893630310  0.6112272148097131  0.6252689137485764
  0.2999365213398621  0.6111330333312668  0.9585589096798158
  0.3001008084466198  0.9444460949433282  0.2920401576281842
  0.2999722212118743  0.9444385521237149  0.6252767256787799
  0.3000256907091250  0.9444380389352606  0.9586906080656308
  0.5002975402300531  0.2778968250267292  0.2913676676475450
  0.5001364151893678  0.2773182400251057  0.6252648537518738
  0.4999819620234227  0.2777820342502736  0.9580845832419934
  0.4999942866831980  0.6107230340694662  0.2913921727496555
  0.4995434670996296  0.6111581061114140  0.6253070568686455
  0.5000436462756528  0.6110688580044471  0.9581256314671479
  0.5000456455144036  0.9442961259904686  0.2919210858450694
  0.4999956351112377  0.9442675120756509  0.6251929057363171
  0.5000181202267964  0.9443695236658333  0.9585789596896627
  0.6997023474419486  0.2778965865158328  0.2913668211325119
  0.6998635645513633  0.2773184272917652  0.6252639117051659
  0.7000179239698434  0.2777820181320317  0.9580844528527509
  0.7000057190483698  0.6107230482659239  0.2913919008739017
  0.7004565566207364  0.6111581071231381  0.6253072333375989
  0.6999562545271200  0.6110688624784012  0.9581254454890844
  0.6999543705973235  0.9442960765249427  0.2919208461270085
  0.7000043727427091  0.9442675132047396  0.6251927161148509
  0.6999818327388080  0.9443694949949555  0.9585787637362339
  0.8997961287242855  0.2778506607504758  0.2919302656199708
  0.8999412073552043  0.2777929498984305  0.6250740994019772
  0.8999978122258874  0.2777526746847001  0.9584273436694901
  0.9000594344058586  0.6111283971783273  0.2917761553270213
  0.9001641276222377  0.6112271775205177  0.6252689344442850
  0.9000635167146305  0.6111330566087920  0.9585587381983255
  0.8998992196188113  0.9444459963650009  0.2920397672938070
  0.9000277806628508  0.9444385737138171  0.6252764473316044
  0.8999743448966692  0.9444379836570184  0.9586902988169699
  0.9999392215755165  0.1111590007882289  0.2920154574284994
  0.9999845330954874  0.1111377459355592  0.6252381167356378
  0.9999898054507975  0.1111255984973386  0.9586399920483794
  0.9998593869126211  0.4443863366496200  0.2919211496862570
  0.0001205350915587  0.4445615766680405  0.6251756468166639
 -0.0000039523338807  0.4444275104595909  0.9585022165415839
 -0.0000052367945546  0.7778484248576690  0.2920074487025225
  0.0000633510458678  0.7778886764135128  0.6253202830110512
  0.0000059800126118  0.7778027787700958  0.9587036627623243
  0.2000608474049435  0.1111590487700625  0.2920158627716255
  0.2000154844739585  0.1111377248668893  0.6252384792725935
  0.2000103039828299  0.1111256341958360  0.9586403110450777
  0.2001408060969476  0.4443862386489925  0.2919216451812831
  0.1998793379651055  0.4445615872067400  0.6251758979850855
  0.2000040606369402  0.4444275030884295  0.9585024687469603
  0.2000052130144153  0.7778484465466291  0.2920075627275273
  0.1999366329868130  0.7778886861257981  0.6253202709629198
  0.1999940942784204  0.7778027886620729  0.9587037745567386
  0.4001202496606464  0.1112504109778521  0.2919520676458257
  0.4000188493537539  0.1108936779655801  0.6252235922160490
  0.4000375023629302  0.1110772934859420  0.9585249486595596
  0.4002642932077108  0.4445613347012362  0.2913725670485015
  0.3996810170817358  0.4447532800451286  0.6252801728576519
  0.4000159829261329  0.4443746591972195  0.9580981521762880
  0.4001384282726783  0.7775595992000388  0.2919745432682382
  0.3998355293915644  0.7778087613989370  0.6252566796502614
  0.4000056487987831  0.7777266382163217  0.9585635548005116
  0.5999999718133527  0.1109712897906935  0.2917363415859907
  0.5999999975040478  0.1108387644263677  0.6252091529914712
  0.5999999514369174  0.1109788563318100  0.9585027566753184
  0.5999998680743149  0.4443725347085286  0.2908106666104895
  0.6000000485199959  0.4444262736058787  0.6264885012084682
  0.5999999183626473  0.4444071415876293  0.9578910182058396
  0.6000000185310940  0.7774619543559845  0.2919371156858697
  0.6000000135063722  0.7776104753034024  0.6251087794323723
  0.5999999557131536  0.7777313205371582  0.9584528249418647
  0.7998797698231330  0.1112502249281999  0.2919512972594221
  0.7999811391029207  0.1108937703699918  0.6252228903543928
  0.7999624708460763  0.1110772410432853  0.9585244324302792
  0.7997358934941119  0.4445615518352661  0.2913715586352425
  0.8003187865167094  0.4447532560190136  0.6252794723478682
  0.7999839751956154  0.4443746648421580  0.9580979019131121
  0.7998616099129098  0.7775595354485375  0.2919742602386165
  0.8001644622111268  0.7778087430508817  0.6252567160530323
  0.7999943361223429  0.7777266328329264  0.9585633631527415
  0.5999999890976779  0.4443606364408677  0.5599088191702805
 
  0.00000000E+00  0.00000000E+00  0.00000000E+00
  0.00000000E+00  0.00000000E+00  0.00000000E+00
  0.00000000E+00  0.00000000E+00  0.00000000E+00
  0.00000000E+00  0.00000000E+00  0.00000000E+00
  0.00000000E+00  0.00000000E+00  0.00000000E+00
  0.00000000E+00  0.00000000E+00  0.00000000E+00
  0.00000000E+00  0.00000000E+00  0.00000000E+00
  0.00000000E+00  0.00000000E+00  0.00000000E+00
  0.00000000E+00  0.00000000E+00  0.00000000E+00
  0.00000000E+00  0.00000000E+00  0.00000000E+00
  0.00000000E+00  0.00000000E+00  0.00000000E+00
  0.00000000E+00  0.00000000E+00  0.00000000E+00
  0.00000000E+00  0.00000000E+00  0.00000000E+00
  0.00000000E+00  0.00000000E+00  0.00000000E+00
  0.00000000E+00  0.00000000E+00  0.00000000E+00
  0.00000000E+00  0.00000000E+00  0.00000000E+00
  0.00000000E+00  0.00000000E+00  0.00000000E+00
  0.00000000E+00  0.00000000E+00  0.00000000E+00
  0.00000000E+00  0.00000000E+00  0.00000000E+00
  0.00000000E+00  0.00000000E+00  0.00000000E+00
  0.00000000E+00  0.00000000E+00  0.00000000E+00
  0.00000000E+00  0.00000000E+00  0.00000000E+00
  0.00000000E+00  0.00000000E+00  0.00000000E+00
  0.00000000E+00  0.00000000E+00  0.00000000E+00
  0.00000000E+00  0.00000000E+00  0.00000000E+00
  0.00000000E+00  0.00000000E+00  0.00000000E+00
  0.00000000E+00  0.00000000E+00  0.00000000E+00
  0.00000000E+00  0.00000000E+00  0.00000000E+00
  0.00000000E+00  0.00000000E+00  0.00000000E+00
  0.00000000E+00  0.00000000E+00  0.00000000E+00
  0.00000000E+00  0.00000000E+00  0.00000000E+00
  0.00000000E+00  0.00000000E+00  0.00000000E+00
  0.00000000E+00  0.00000000E+00  0.00000000E+00
  0.00000000E+00  0.00000000E+00  0.00000000E+00
  0.00000000E+00  0.00000000E+00  0.00000000E+00
  0.00000000E+00  0.00000000E+00  0.00000000E+00
  0.00000000E+00  0.00000000E+00  0.00000000E+00
  0.00000000E+00  0.00000000E+00  0.00000000E+00
  0.00000000E+00  0.00000000E+00  0.00000000E+00
  0.00000000E+00  0.00000000E+00  0.00000000E+00
  0.00000000E+00  0.00000000E+00  0.00000000E+00
  0.00000000E+00  0.00000000E+00  0.00000000E+00
  0.00000000E+00  0.00000000E+00  0.00000000E+00
  0.00000000E+00  0.00000000E+00  0.00000000E+00
  0.00000000E+00  0.00000000E+00  0.00000000E+00
  0.00000000E+00  0.00000000E+00  0.00000000E+00
  0.00000000E+00  0.00000000E+00  0.00000000E+00
  0.00000000E+00  0.00000000E+00  0.00000000E+00
  0.00000000E+00  0.00000000E+00  0.00000000E+00
  0.00000000E+00  0.00000000E+00  0.00000000E+00
  0.00000000E+00  0.00000000E+00  0.00000000E+00
  0.00000000E+00  0.00000000E+00  0.00000000E+00
  0.00000000E+00  0.00000000E+00  0.00000000E+00
  0.00000000E+00  0.00000000E+00  0.00000000E+00
  0.00000000E+00  0.00000000E+00  0.00000000E+00
  0.00000000E+00  0.00000000E+00  0.00000000E+00
  0.00000000E+00  0.00000000E+00  0.00000000E+00
  0.00000000E+00  0.00000000E+00  0.00000000E+00
  0.00000000E+00  0.00000000E+00  0.00000000E+00
  0.00000000E+00  0.00000000E+00  0.00000000E+00
  0.00000000E+00  0.00000000E+00  0.00000000E+00
  0.00000000E+00  0.00000000E+00  0.00000000E+00
  0.00000000E+00  0.00000000E+00  0.00000000E+00
  0.00000000E+00  0.00000000E+00  0.00000000E+00
  0.00000000E+00  0.00000000E+00  0.00000000E+00
  0.00000000E+00  0.00000000E+00  0.00000000E+00
  0.00000000E+00  0.00000000E+00  0.00000000E+00
  0.00000000E+00  0.00000000E+00  0.00000000E+00
  0.00000000E+00  0.00000000E+00  0.00000000E+00
  0.00000000E+00  0.00000000E+00  0.00000000E+00
  0.00000000E+00  0.00000000E+00  0.00000000E+00
  0.00000000E+00  0.00000000E+00  0.00000000E+00
  0.00000000E+00  0.00000000E+00  0.00000000E+00
  0.00000000E+00  0.00000000E+00  0.00000000E+00
  0.00000000E+00  0.00000000E+00  0.00000000E+00
  0.00000000E+00  0.00000000E+00  0.00000000E+00
  0.00000000E+00  0.00000000E+00  0.00000000E+00
  0.00000000E+00  0.00000000E+00  0.00000000E+00
  0.00000000E+00  0.00000000E+00  0.00000000E+00
  0.00000000E+00  0.00000000E+00  0.00000000E+00
  0.00000000E+00  0.00000000E+00  0.00000000E+00
  0.00000000E+00  0.00000000E+00  0.00000000E+00
  0.00000000E+00  0.00000000E+00  0.00000000E+00
  0.00000000E+00  0.00000000E+00  0.00000000E+00
  0.00000000E+00  0.00000000E+00  0.00000000E+00
  0.00000000E+00  0.00000000E+00  0.00000000E+00
  0.00000000E+00  0.00000000E+00  0.00000000E+00
  0.00000000E+00  0.00000000E+00  0.00000000E+00
  0.00000000E+00  0.00000000E+00  0.00000000E+00
  0.00000000E+00  0.00000000E+00  0.00000000E+00
  0.00000000E+00  0.00000000E+00  0.00000000E+00
  0.00000000E+00  0.00000000E+00  0.00000000E+00
  0.00000000E+00  0.00000000E+00  0.00000000E+00
  0.00000000E+00  0.00000000E+00  0.00000000E+00
  0.00000000E+00  0.00000000E+00  0.00000000E+00
  0.00000000E+00  0.00000000E+00  0.00000000E+00
  0.00000000E+00  0.00000000E+00  0.00000000E+00
  0.00000000E+00  0.00000000E+00  0.00000000E+00
  0.00000000E+00  0.00000000E+00  0.00000000E+00
  0.00000000E+00  0.00000000E+00  0.00000000E+00
  0.00000000E+00  0.00000000E+00  0.00000000E+00
  0.00000000E+00  0.00000000E+00  0.00000000E+00
  0.00000000E+00  0.00000000E+00  0.00000000E+00
  0.00000000E+00  0.00000000E+00  0.00000000E+00
  0.00000000E+00  0.00000000E+00  0.00000000E+00
  0.00000000E+00  0.00000000E+00  0.00000000E+00
  0.00000000E+00  0.00000000E+00  0.00000000E+00
  0.00000000E+00  0.00000000E+00  0.00000000E+00
  0.00000000E+00  0.00000000E+00  0.00000000E+00
  0.00000000E+00  0.00000000E+00  0.00000000E+00
  0.00000000E+00  0.00000000E+00  0.00000000E+00
  0.00000000E+00  0.00000000E+00  0.00000000E+00
  0.00000000E+00  0.00000000E+00  0.00000000E+00
  0.00000000E+00  0.00000000E+00  0.00000000E+00
  0.00000000E+00  0.00000000E+00  0.00000000E+00
  0.00000000E+00  0.00000000E+00  0.00000000E+00
  0.00000000E+00  0.00000000E+00  0.00000000E+00
  0.00000000E+00  0.00000000E+00  0.00000000E+00
  0.00000000E+00  0.00000000E+00  0.00000000E+00
  0.00000000E+00  0.00000000E+00  0.00000000E+00
  0.00000000E+00  0.00000000E+00  0.00000000E+00
  0.00000000E+00  0.00000000E+00  0.00000000E+00
  0.00000000E+00  0.00000000E+00  0.00000000E+00
  0.00000000E+00  0.00000000E+00  0.00000000E+00
  0.00000000E+00  0.00000000E+00  0.00000000E+00
  0.00000000E+00  0.00000000E+00  0.00000000E+00
  0.00000000E+00  0.00000000E+00  0.00000000E+00
  0.00000000E+00  0.00000000E+00  0.00000000E+00
  0.00000000E+00  0.00000000E+00  0.00000000E+00
  0.00000000E+00  0.00000000E+00  0.00000000E+00
  0.00000000E+00  0.00000000E+00  0.00000000E+00
  0.00000000E+00  0.00000000E+00  0.00000000E+00
  0.00000000E+00  0.00000000E+00  0.00000000E+00
  0.00000000E+00  0.00000000E+00  0.00000000E+00
  0.00000000E+00  0.00000000E+00  0.00000000E+00
  0.00000000E+00  0.00000000E+00  0.00000000E+00
  0.00000000E+00  0.00000000E+00  0.00000000E+00
  0.00000000E+00  0.00000000E+00  0.00000000E+00
  0.00000000E+00  0.00000000E+00  0.00000000E+00
  0.00000000E+00  0.00000000E+00  0.00000000E+00
  0.00000000E+00  0.00000000E+00  0.00000000E+00
  0.00000000E+00  0.00000000E+00  0.00000000E+00
  0.00000000E+00  0.00000000E+00  0.00000000E+00
  0.00000000E+00  0.00000000E+00  0.00000000E+00
  0.00000000E+00  0.00000000E+00  0.00000000E+00
  0.00000000E+00  0.00000000E+00  0.00000000E+00
  0.00000000E+00  0.00000000E+00  0.00000000E+00
  0.00000000E+00  0.00000000E+00  0.00000000E+00
  0.00000000E+00  0.00000000E+00  0.00000000E+00
  0.00000000E+00  0.00000000E+00  0.00000000E+00
  0.00000000E+00  0.00000000E+00  0.00000000E+00
  0.00000000E+00  0.00000000E+00  0.00000000E+00
  0.00000000E+00  0.00000000E+00  0.00000000E+00
  0.00000000E+00  0.00000000E+00  0.00000000E+00
  0.00000000E+00  0.00000000E+00  0.00000000E+00
  0.00000000E+00  0.00000000E+00  0.00000000E+00
  0.00000000E+00  0.00000000E+00  0.00000000E+00