GaN_ONH                                 
    1.000000000000000     
    15.8909244537000003    0.0000000000000000    0.0000000000000000
     0.0000000000000000   16.5143318175999987    0.0000000000000000
     0.0000000000000000    0.0000000000000000   15.4982528686999999
   Ga   N    O    H 
   180   179     1     1
Direct
  0.0996459714503359  0.0555608564423125  0.3327671189746724
  0.0997629558317428  0.0554728358907468  0.6664057028272339
  0.0998187373885386  0.0555153212343953  0.9995485792921244
  0.0992422418481453  0.3885299118332028  0.3328321239446410
  0.0991141036464711  0.3883607699628158  0.6668374253290494
  0.0995232369539352  0.3886080495237962  0.9998073234476195
  0.0995069674021138  0.7224533326920834  0.3326831997269935
  0.0997890636318814  0.7222895398448799  0.6666810278610740
  0.0996917074777670  0.7223581105927721  0.9997089980564695
  0.2997640366963310  0.0556470548642380  0.3328646719805946
  0.2998639846955342  0.0556800267916486  0.6665270995115691
  0.2998861500337497  0.0556086512471055  0.9996552426701584
  0.2989334065092706  0.3881769215620636  0.3319216141592989
  0.2983229986345819  0.3878554010599871  0.6687815995479269
  0.2995361965688446  0.3884687698235325  0.9994848639706646
  0.2996398735060382  0.7236210957551990  0.3318895864112577
  0.3001125544024958  0.7236919872780589  0.6681011042402432
  0.2997688668909930  0.7226793320919640  0.9995149005768482
  0.4999904757063049  0.0556967076079715  0.3328845389957351
  0.5000470732430458  0.0557535977467651  0.6665392560057484
  0.5000533775014446  0.0556229014445222  0.9996897502159712
  0.5003427467038151  0.3876739364133144  0.3317190617286556
  0.5009475529133098  0.3880609083119140  0.6683622753586036
  0.5002119018758080  0.3885195784047184  0.9995600750297129
  0.5000921605284745  0.7233540386429382  0.3319279676651234
  0.5001075716638397  0.7240580937525110  0.6687862150575086
  0.5001123378710730  0.7227428233592619  0.9994840084201968
  0.7001508856781697  0.0556383094997841  0.3328191600477624
  0.7001248379360732  0.0556319765226618  0.6664462641099149
  0.7001314598642381  0.0555756265728817  0.9995874052898372
  0.7001446145025412  0.3886729007952709  0.3329036179325016
  0.7004871458010840  0.3885078213610171  0.6670314211004822
  0.7001858684304025  0.3886732150063636  0.9998968272601374
  0.7002302511752490  0.7226863183877796  0.3328307457987734
  0.7002245847208215  0.7224272056921208  0.6666998002043130
  0.7002110483548378  0.7223992454730208  0.9998077564461809
  0.8998923554315326  0.0555724154174655  0.3328328926281685
  0.8999368163626045  0.0554537984112571  0.6663088135567605
  0.8999666038806353  0.0555153001989268  0.9995427457608201
  0.8997248623046090  0.3886734452407339  0.3328616958745059
  0.8998079319176000  0.3886684991454175  0.6665667830584425
  0.8998777850895010  0.3887160496323574  0.9996920859329421
  0.8998734104026553  0.7223325783342531  0.3328282642540614
  0.8999743908184143  0.7222580895116053  0.6664734658506859
  0.8999458334254200  0.7222635328857194  0.9996097522980136
  0.9996226139242665  0.2220539884607291  0.3328465183962450
  0.9996904232170110  0.2219670838441914  0.6664333459642222
  0.9998103394700877  0.2220453428545355  0.9996127325113733
  0.9993931987803677  0.5553800614142546  0.3325203275762263
  0.9995709955213457  0.5553643300629645  0.6666697805539457
  0.9997246120126562  0.5554515697000326  0.9996937597115263
  0.9997751912514588  0.8890226105502492  0.3327932783631411
  0.9998990218078561  0.8888903530708205  0.6663555359727482
  0.9998692705513790  0.8889298186810066  0.9995365216127539
  0.1993601397561235  0.2217995468368699  0.3325987403401456
  0.1994580393589658  0.2217859815147776  0.6666766132357438
  0.1996884291556924  0.2219631046228727  0.9997563649192998
  0.1985311196531612  0.5550743010773687  0.3318990555619834
  0.1986989475949770  0.5546630233273504  0.6680989433423079
  0.1994421338677554  0.5554488860526945  0.9995171628601867
  0.1996813435281481  0.8894658313255590  0.3325179876965905
  0.1998457787539039  0.8892816713429781  0.6665848368153107
  0.1998269422282348  0.8891286977892108  0.9996608746536353
  0.3996818018090522  0.2218054369485074  0.3328419371645879
  0.3998871751805453  0.2219874256266863  0.6667354012552309
  0.3999295277584309  0.2219282999547758  0.9998385597759594
  0.3988433479611615  0.5561066880210532  0.3165869828423382
  0.4000735458769000  0.5554674475702654  0.6670348196070606
  0.3998862545472193  0.5555657577265194  0.0002183674878822
  0.3999153363122403  0.8895469428426708  0.3328390828259771
  0.4000123010314027  0.8897709915355776  0.6668544214233805
  0.3999693155175166  0.8893328421690185  0.9998082586378274
  0.6003040270779252  0.2218029146356955  0.3326809543153786
  0.6002098280159629  0.2219728750228214  0.6666842064537093
  0.6001558159507780  0.2220121933881956  0.9997552614807290
  0.6011606579939581  0.5557799717540135  0.3317326111674603
  0.6011672241993082  0.5551066000210412  0.6683580688989110
  0.6003612503241413  0.5554758690427875  0.9995590478852279
  0.6001542849963641  0.8895243010956406  0.3326113408611064
  0.6002002504669903  0.8894686398383769  0.6666694246605047
  0.6001366413179525  0.8891929672963883  0.9997580445728431
  0.7999811342147325  0.2221263562320956  0.3328664846089993
  0.8000245779839190  0.2220581493196292  0.6664723087854583
  0.8000568395055012  0.2220913691542137  0.9996478788461829
  0.8002718177856423  0.5554509691678788  0.3326383805821536
  0.8002001803571872  0.5554623091374324  0.6667214815352054
  0.8001020026463195  0.5554778477476319  0.9997415674176224
  0.8000555562055212  0.8890956532112142  0.3328465831552947
  0.8000863946047616  0.8889708182146805  0.6663962228005360
  0.8000741666435474  0.8889603275837104  0.9995856752197625
  0.0996137670191999  0.2775861832066155  0.1662086766709479
  0.0992321365653765  0.2774186029907426  0.4997622526380994
  0.0997546934352798  0.2775737058698056  0.8332147568741348
  0.0992172896751455  0.6113479031107261  0.1660341122652582
  0.0975336960583419  0.6113252040084589  0.4998993485028436
  0.0995721599503838  0.6113175419589183  0.8334443348284850
  0.0996699182516707  0.9446430035480731  0.1660859079901869
  0.0994655166755223  0.9447906103004513  0.4996222093488285
  0.0998301298188551  0.9445042491826570  0.8330025010650317
  0.2996235437494263  0.2771646377971493  0.1661056800195482
  0.2984120559043575  0.2752249122024892  0.4999274962237266
  0.2998314434779061  0.2771935210362244  0.8336500010721295
  0.2984403058536742  0.6119796241989093  0.1641011497024323
  0.2872989045619931  0.6182010820598052  0.5047002186251532
  0.2999154066802348  0.6111722144445224  0.8338361749182468
  0.2998319653805055  0.9447383499980830  0.1661756548914113
  0.2999055348808497  0.9450614808534965  0.4997839347480237
  0.2998751292327313  0.9446353070599471  0.8332090753428929
  0.5000729040806817  0.2771447602008408  0.1660126841183498
  0.5009432994538656  0.2758715935762766  0.4998314882615773
  0.4999726527252761  0.2773448686360425  0.8335902017531751
  0.5012549918233873  0.6120912238467042  0.1641206022642976
  0.5113759909322440  0.6204704917116501  0.5062789271889301
  0.4999637156436663  0.6112334140153379  0.8339201170716635
  0.5000455583526886  0.9447621423235617  0.1662292789078421
  0.5000018109417255  0.9451279128848071  0.4997875294633261
  0.5001208687186605  0.9446775127068818  0.8332465259715107
  0.7000919501915135  0.2776604218254803  0.1662591531906372
  0.7003198060325673  0.2775052057029583  0.4998539200694125
  0.7000678492366319  0.2776482058431569  0.8332893486692186
  0.7004987560055582  0.6114201009458782  0.1659967056689666
  0.7020773803262514  0.6113362626311627  0.4998337756550342
  0.7003476528714287  0.6113980779858537  0.8335788276899549
  0.7002115393435488  0.9447072176423248  0.1661535126015963
  0.7005298734988514  0.9451013113624853  0.4996825118666379
  0.7001695551808069  0.9446194083799284  0.8330744537813004
  0.8998741171163118  0.2777184864644795  0.1662133477289203
  0.8998068737524392  0.2776111962410752  0.4997164155347278
  0.8999231465309308  0.2777225423410101  0.8330765084884959
  0.8998673120271761  0.6112878730654927  0.1661037228689253
  0.8998807049101103  0.6112154982691607  0.4997313927448346
  0.8999478260149303  0.6112210916601413  0.8331558607648759
  0.8999382126591158  0.9446020431009785  0.1661530130043545
  0.8999574149873411  0.9445767206333571  0.4995819238121086
  0.9000001372493500  0.9445185079320666  0.8329476514712297
  0.9998167381287999  0.1111093646853689  0.1661528427954622
  0.9996978465076438  0.1110903978072102  0.4996103880761567
  0.9998806192567287  0.1110568777004133  0.8329782735705749
  0.9996039313560843  0.4443599529062610  0.1661861213228164
  0.9993608890614141  0.4440818567232157  0.4998035339624209
  0.9997367792499219  0.4444042014633851  0.8332424827387186
  0.9996925760825022  0.7780135733126983  0.1661646319971197
  0.9995915170001339  0.7780539100865482  0.4996662502870635
  0.9998433897248589  0.7779134952368736  0.8330312769713188
  0.1997280520224720  0.1109395390894647  0.1661549840580179
  0.1994231301424776  0.1105550670251105  0.4996998785177169
  0.1998381489082277  0.1109846930592724  0.8331047336945190
  0.1993632133591206  0.4441769545897643  0.1658897228922953
  0.1984622337137552  0.4435573933965529  0.5008767042149742
  0.1993846743290462  0.4442165618193954  0.8339080573856847
  0.1993792858471366  0.7783508619897432  0.1660381867179979
  0.1984924839333786  0.7798189515489469  0.4998761519720603
  0.1996037854772865  0.7780562926834662  0.8334244656000180
  0.3999096004941904  0.1109663880289347  0.1662571379569258
  0.3999125482584986  0.1109677951077757  0.4997706786896003
  0.3999706640833267  0.1110054050051801  0.8331669757266695
  0.3997479192168072  0.4428759033756435  0.1641048159947758
  0.3972583009122346  0.4302064699601615  0.5062813802570005
  0.3998776327770344  0.4444232298629700  0.8339230487232641
  0.3999335407031523  0.7784119467333710  0.1658847397282415
  0.4000622261891920  0.7794687111078673  0.5008838076766651
  0.3999237610961899  0.7783951741996020  0.8339153003030191
  0.6001252306549816  0.1109737752326794  0.1661825801270282
  0.6002746547692723  0.1108216219693503  0.4997241432574455
  0.6000848509878196  0.1110838538157850  0.8331319454800195
  0.6001820436283367  0.4443152589385875  0.1660742849192403
  0.6013040524380600  0.4437009041191686  0.5014562901291910
  0.6002861223294005  0.4442781558234898  0.8338882701355743
  0.6003888691840729  0.7783978770701339  0.1661057925836431
  0.6016098144874462  0.7803616024727660  0.4999142172055286
  0.6004887830301087  0.7782215170857683  0.8336327359621762
  0.8000500192338649  0.1111624397697923  0.1661754531495276
  0.8001190995525533  0.1112100872757509  0.4996344561927160
  0.8000539521378016  0.1111254223913676  0.8329996095930170
  0.7999886832705627  0.4444043172047500  0.1662505518302311
  0.8001845515733734  0.4442100799701478  0.4998775666757638
  0.8000517738055066  0.4444506216122051  0.8333215921627612
  0.8001081386150872  0.7780619262970063  0.1662154003077134
  0.8003055986576513  0.7781133394407291  0.4997057092687243
  0.8001358524209223  0.7779505163665306  0.8330824671340267
  0.0998081992352979  0.0556040458642286  0.1251568876745282
  0.0996284478193559  0.0555194325914030  0.4584090845810138
  0.0999355564858959  0.0555312317021830  0.7919090200453951
  0.0996149311982322  0.3887807167760897  0.1254193868322560
  0.0995376480055725  0.3887761654102206  0.4586107481751540
  0.0998096733756171  0.3888313613407703  0.7921935572857493
  0.0997881284206699  0.7223245219389014  0.1253748476971879
  0.1001589245839583  0.7220899499290496  0.4586133359165956
  0.1000198858676598  0.7221950284726191  0.7920332475436069
  0.2998927463524197  0.0556925545222668  0.1252712790488104
  0.2998734902089453  0.0558623268818579  0.4585475481797232
  0.2999582712750097  0.0556218528786658  0.7920111212736032
  0.2993304820809897  0.3884741777991536  0.1252128205132621
  0.2978756123877417  0.3878935653659568  0.4580563584783945
  0.2997695546037917  0.3887986023472152  0.7933323086095925
  0.2997555927091469  0.7228515286624813  0.1253525981608163
  0.3007241539293588  0.7229271229351397  0.4580313114158443
  0.3000386049612018  0.7222270076449391  0.7928015331966662
  0.4999675389441904  0.0557201512268222  0.1253123450617579
  0.4999348555517926  0.0559391020646061  0.4585588567617620
  0.4999978569749075  0.0556629911096493  0.7920290428783048
  0.5002802831030024  0.3885286212190024  0.1253518172500918
  0.4999582612348945  0.3891002191243871  0.4586285794787841
  0.4999063508108108  0.3889106481675597  0.7930696280810139
  0.5000566434131528  0.7229694669892979  0.1252131523188780
  0.4998874256166488  0.7244787111864781  0.4580643496982049
  0.4999987526823659  0.7224589810256745  0.7933368106804508
  0.7000631128346697  0.0556654211129057  0.1252001092760722
  0.7001537327544938  0.0558230637176607  0.4584517198625520
  0.6999937216030858  0.0556397995914111  0.7919484075860623
  0.6999207927022724  0.3888733729295453  0.1255469242594458
  0.6997865522011750  0.3889163259210520  0.4587086267166711
  0.6999408343416746  0.3889072609051780  0.7923313028358692
  0.7000116789209940  0.7223888797065143  0.1254427615370730
  0.6997961901040100  0.7222553647839050  0.4586952176083940
  0.6999595653040060  0.7222569902247713  0.7920903388076610
  0.8999183287925661  0.0555960315990518  0.1251524847752350
  0.8998779867424815  0.0555479847453029  0.4584756685166198
  0.8999483391923846  0.0555479661855074  0.7918540112519921
  0.8997870880103847  0.3888444166373475  0.1253055568388106
  0.8996935188152904  0.3887173557902130  0.4585336678424241
  0.8998698371268929  0.3889137643731857  0.7920442369202263
  0.8998877383467843  0.7222762002452541  0.1252467892433486
  0.8999441707281690  0.7220967066492747  0.4585250943375883
  0.8999797564841501  0.7221937191789252  0.7919472824016296
  0.9997861672749409  0.2221990192597403  0.1252215025782917
  0.9996209569199550  0.2221648146231487  0.4584880370021409
  0.9998927468237468  0.2222008623123131  0.7919504618372457
  0.9997113098780517  0.5554793976514887  0.1253324952908201
  0.9995474959680593  0.5551207907733939  0.4582886731156748
  0.9999694728985986  0.5555385912140594  0.7920604064227774
  0.9998665403068685  0.8889278583717513  0.1251688736672421
  0.9999241876444245  0.8888186418291255  0.4584606837576644
  0.9999794425673088  0.8888540614666525  0.7918607788514151
  0.1996600132596313  0.2220962151423578  0.1253697356712991
  0.1989789580057675  0.2216454744835374  0.4583214608287136
  0.1998886782220524  0.2222059885546486  0.7920872493310611
  0.1993157564603010  0.5554366311427117  0.1253515844660882
  0.1997839760032463  0.5546106902943961  0.4580373454560771
  0.2000100414569204  0.5555351846655014  0.7928005488537053
  0.1998628436035261  0.8891726935069002  0.1253031109307869
  0.1999995293577115  0.8895510812354317  0.4582889661372604
  0.2000130370572748  0.8888814804242529  0.7920008215859156
  0.3998629467340393  0.2221710489159534  0.1254639370593296
  0.3998155783114470  0.2225469588032141  0.4586979566236593
  0.3999324513986195  0.2222872514628804  0.7921236209322302
  0.3998133333936096  0.5556432742491566  0.1268924368520388
  0.3999295732976265  0.5555965156888263  0.7919383112992975
  0.3999419052038249  0.8892426416716859  0.1254273925534193
  0.3998957846175202  0.8893105606137794  0.4586215731506229
  0.4000038503569598  0.8890684419816139  0.7922050675905865
  0.6000792870094998  0.2221347835374274  0.1253931638600463
  0.6004236688854192  0.2220232835324012  0.4583789804487495
  0.5999249171327889  0.2223180946969876  0.7921109994993216
  0.6004211016779308  0.5554687522195394  0.1253499030528857
  0.5997852712497576  0.5554785771060580  0.4586493527706779
  0.5999411891426547  0.5556132204536368  0.7930676834524277
  0.6000345539387055  0.8892419900287649  0.1253780374664402
  0.6001236151891547  0.8900534684938179  0.4583408641721789
  0.6000146035557350  0.8890014329074631  0.7920819160251753
  0.7999315012930168  0.2222558466357327  0.1252600523729726
  0.7999167669595408  0.2222933880277296  0.4585161922772372
  0.7999114044184381  0.2222685276024876  0.7919843679631455
  0.8000030466763874  0.5555169376002027  0.1253781160098200
  0.8002797166604694  0.5552025385312334  0.4583513065628466
  0.7999039937006316  0.5555763623200249  0.7921255837623136
  0.7999915128120350  0.8889685052659502  0.1252090348404735
  0.7999674974447615  0.8889147837834201  0.4585114458457440
  0.7999910622005473  0.8889026510658340  0.7919091761083905
  0.0997106741458538  0.2777281149007109  0.2919149575646429
  0.0998290918037057  0.2776540400776852  0.6253008114186542
  0.0998842678292675  0.2776828052935087  0.9587273599480426
  0.0995286783552984  0.6112366308329555  0.2919484744421368
  0.1001348270321003  0.6109307580464503  0.6252508894718787
  0.0997646021269958  0.6111791268691746  0.9588454365637062
  0.0997287215449418  0.9445030485513612  0.2917595536590909
  0.0999540272508028  0.9443269622708144  0.6251667463619057
  0.0998994807946616  0.9444138757068359  0.9585492587248581
  0.2997148921353059  0.2774848710298130  0.2919839115956222
  0.2997686609642471  0.2777704999447010  0.6254003292322352
  0.2999015414289374  0.2774786278321955  0.9589874136204344
  0.2982832634510828  0.6120139993050344  0.2920131185084358
  0.3000748182183131  0.6110290341771858  0.6259227572875048
  0.2999423236745713  0.6111008102113331  0.9593781324176405
  0.2998979702521325  0.9445281219467176  0.2918932229440614
  0.2999455786816512  0.9444982668324187  0.6253007139715621
  0.2999199871622267  0.9444781526813344  0.9587187614092798
  0.4998418546964984  0.2773073901260616  0.2919619520424064
  0.4998941828650345  0.2779325016253651  0.6253113884970034
  0.4999378364092308  0.2775531858399631  0.9589777451693848
  0.5006565275900243  0.6118813420344651  0.2912580340720652
  0.5000661110641076  0.6117231237057936  0.6273288468165887
  0.4998442176577598  0.6111190792546708  0.9594678724692045
  0.4999185063018317  0.9445671608439028  0.2919488735680318
  0.5000349922328837  0.9445708608710532  0.6253186834226412
  0.5000313956896889  0.9444884628521351  0.9587543219100354
  0.6998596127863053  0.2778593498749231  0.2919918356886484
  0.6998731826897426  0.2778223996451032  0.6253679417498503
  0.6999752565008137  0.2777393911794235  0.9588032712391339
  0.7001999875858829  0.6114506768710655  0.2919453819669897
  0.6997750687102311  0.6110817571132046  0.6253088035863996
  0.7000787269338460  0.6112302198888031  0.9589609896608238
  0.7001056811786128  0.9445839813932224  0.2918112222603284
  0.7000766813448394  0.9445142970111249  0.6252314259332650
  0.7000613615722884  0.9444738318498267  0.9586170759824952
  0.8998078649273040  0.2777918519662208  0.2918638069222013
  0.8998662710764478  0.2777721543339879  0.6252871654133330
  0.8999369400308410  0.2777536444438482  0.9586231955678528
  0.8998131835095364  0.6112607370953924  0.2918038774328267
  0.8999234834105110  0.6111137571447287  0.6252385781310537
  0.8999154031426926  0.6111168425170206  0.9586802442190816
  0.8999262917721182  0.9445072927911156  0.2918190876512909
  0.9000065712184693  0.9443471631089722  0.6251547164933484
  0.8999771206294653  0.9444451870433284  0.9585066994245750
  0.9998286897107533  0.1111261955314191  0.2918020835787161
  0.9999148080673521  0.1110222546532427  0.6251897250125182
  0.9999289934357662  0.1110642149786756  0.9585309117385066
  0.9996889707305883  0.4443998877373829  0.2919041892030023
  0.9997821104631441  0.4444272340754978  0.6253178185029711
  0.9998367820438148  0.4444142758256433  0.9587454938298308
  0.9998020795642688  0.7778432198988838  0.2919006072968386
  0.0000670724504985  0.7776344920033083  0.6252001806175826
  0.9998955240978376  0.7777802011433721  0.9585672492765838
  0.1997908548159657  0.1109297181342654  0.2918210520316222
  0.1998754525940996  0.1109813228938421  0.6252437637608210
  0.1999020000143474  0.1110269121355785  0.9586380469244631
  0.1996201159508573  0.4443637770677000  0.2919351565984556
  0.1997616354707930  0.4442609404635931  0.6259383394032554
  0.1996708193871655  0.4443463682784810  0.9591480650169544
  0.1996006012291929  0.7780239357532963  0.2919501592759275
  0.2001907386488568  0.7776330332807433  0.6252264936191381
  0.1997817788716958  0.7778624208889298  0.9588303820475872
  0.3998646676017898  0.1110267954056496  0.2919723197108155
  0.3999356102038760  0.1111911413537925  0.6253116385715103
  0.3999710812339217  0.1110314125353966  0.9587024155097055
  0.3995828234396228  0.4433825259499713  0.2912460308713420
  0.3994390798182437  0.4440160469568966  0.6273243549326537
  0.3998794807094086  0.4444946542042345  0.9594738704476669
  0.3998715125745491  0.7780117827427304  0.2919276378627131
  0.4000506517982032  0.7779712591211023  0.6259440446004874
  0.3998963046258552  0.7780249044778103  0.9591519908667792
  0.5999817782429204  0.1109880973641637  0.2918608008207784
  0.5999870648882109  0.1111523618093315  0.6252661138047557
  0.6000276422244397  0.1110727325344953  0.9586739671065558
  0.5996759416438664  0.4445689035686229  0.2922932350331848
  0.5997891872781125  0.4445208688164755  0.6262713624741281
  0.6000471117773927  0.4443662577721312  0.9591608880912688
  0.6000913715609713  0.7780741384865735  0.2919836789439145
  0.5999060885555707  0.7779033036264806  0.6253846432977639
  0.6001783176546027  0.7779406373688076  0.9589739242492001
  0.7999607400239057  0.1111899222490962  0.2918237930083336
  0.7999835172958711  0.1111178694492736  0.6252141343166855
  0.8000242379641804  0.1111168419237103  0.9585500538282119
  0.7997331307238298  0.4444695794267091  0.2919942669240854
  0.7998197011999792  0.4444977187326771  0.6253821827613990
  0.7999126311708551  0.4444386241586926  0.9588248370097361
  0.7999860545711641  0.7779220650916656  0.2919347994665955
  0.7999598755288844  0.7777337944917235  0.6252376693519679
  0.8000066960755419  0.7778069955616047  0.9586257302781789
  0.4200211690122799  0.5443457626677883  0.4503612001454229
  0.4729074360904164  0.5149141846849972  0.4334900607059851
 
  0.00000000E+00  0.00000000E+00  0.00000000E+00
  0.00000000E+00  0.00000000E+00  0.00000000E+00
  0.00000000E+00  0.00000000E+00  0.00000000E+00
  0.00000000E+00  0.00000000E+00  0.00000000E+00
  0.00000000E+00  0.00000000E+00  0.00000000E+00
  0.00000000E+00  0.00000000E+00  0.00000000E+00
  0.00000000E+00  0.00000000E+00  0.00000000E+00
  0.00000000E+00  0.00000000E+00  0.00000000E+00
  0.00000000E+00  0.00000000E+00  0.00000000E+00
  0.00000000E+00  0.00000000E+00  0.00000000E+00
  0.00000000E+00  0.00000000E+00  0.00000000E+00
  0.00000000E+00  0.00000000E+00  0.00000000E+00
  0.00000000E+00  0.00000000E+00  0.00000000E+00
  0.00000000E+00  0.00000000E+00  0.00000000E+00
  0.00000000E+00  0.00000000E+00  0.00000000E+00
  0.00000000E+00  0.00000000E+00  0.00000000E+00
  0.00000000E+00  0.00000000E+00  0.00000000E+00
  0.00000000E+00  0.00000000E+00  0.00000000E+00
  0.00000000E+00  0.00000000E+00  0.00000000E+00
  0.00000000E+00  0.00000000E+00  0.00000000E+00
  0.00000000E+00  0.00000000E+00  0.00000000E+00
  0.00000000E+00  0.00000000E+00  0.00000000E+00
  0.00000000E+00  0.00000000E+00  0.00000000E+00
  0.00000000E+00  0.00000000E+00  0.00000000E+00
  0.00000000E+00  0.00000000E+00  0.00000000E+00
  0.00000000E+00  0.00000000E+00  0.00000000E+00
  0.00000000E+00  0.00000000E+00  0.00000000E+00
  0.00000000E+00  0.00000000E+00  0.00000000E+00
  0.00000000E+00  0.00000000E+00  0.00000000E+00
  0.00000000E+00  0.00000000E+00  0.00000000E+00
  0.00000000E+00  0.00000000E+00  0.00000000E+00
  0.00000000E+00  0.00000000E+00  0.00000000E+00
  0.00000000E+00  0.00000000E+00  0.00000000E+00
  0.00000000E+00  0.00000000E+00  0.00000000E+00
  0.00000000E+00  0.00000000E+00  0.00000000E+00
  0.00000000E+00  0.00000000E+00  0.00000000E+00
  0.00000000E+00  0.00000000E+00  0.00000000E+00
  0.00000000E+00  0.00000000E+00  0.00000000E+00
  0.00000000E+00  0.00000000E+00  0.00000000E+00
  0.00000000E+00  0.00000000E+00  0.00000000E+00
  0.00000000E+00  0.00000000E+00  0.00000000E+00
  0.00000000E+00  0.00000000E+00  0.00000000E+00
  0.00000000E+00  0.00000000E+00  0.00000000E+00
  0.00000000E+00  0.00000000E+00  0.00000000E+00
  0.00000000E+00  0.00000000E+00  0.00000000E+00
  0.00000000E+00  0.00000000E+00  0.00000000E+00
  0.00000000E+00  0.00000000E+00  0.00000000E+00
  0.00000000E+00  0.00000000E+00  0.00000000E+00
  0.00000000E+00  0.00000000E+00  0.00000000E+00
  0.00000000E+00  0.00000000E+00  0.00000000E+00
  0.00000000E+00  0.00000000E+00  0.00000000E+00
  0.00000000E+00  0.00000000E+00  0.00000000E+00
  0.00000000E+00  0.00000000E+00  0.00000000E+00
  0.00000000E+00  0.00000000E+00  0.00000000E+00
  0.00000000E+00  0.00000000E+00  0.00000000E+00
  0.00000000E+00  0.00000000E+00  0.00000000E+00
  0.00000000E+00  0.00000000E+00  0.00000000E+00
  0.00000000E+00  0.00000000E+00  0.00000000E+00
  0.00000000E+00  0.00000000E+00  0.00000000E+00
  0.00000000E+00  0.00000000E+00  0.00000000E+00
  0.00000000E+00  0.00000000E+00  0.00000000E+00
  0.00000000E+00  0.00000000E+00  0.00000000E+00
  0.00000000E+00  0.00000000E+00  0.00000000E+00
  0.00000000E+00  0.00000000E+00  0.00000000E+00
  0.00000000E+00  0.00000000E+00  0.00000000E+00
  0.00000000E+00  0.00000000E+00  0.00000000E+00
  0.00000000E+00  0.00000000E+00  0.00000000E+00
  0.00000000E+00  0.00000000E+00  0.00000000E+00
  0.00000000E+00  0.00000000E+00  0.00000000E+00
  0.00000000E+00  0.00000000E+00  0.00000000E+00
  0.00000000E+00  0.00000000E+00  0.00000000E+00
  0.00000000E+00  0.00000000E+00  0.00000000E+00
  0.00000000E+00  0.00000000E+00  0.00000000E+00
  0.00000000E+00  0.00000000E+00  0.00000000E+00
  0.00000000E+00  0.00000000E+00  0.00000000E+00
  0.00000000E+00  0.00000000E+00  0.00000000E+00
  0.00000000E+00  0.00000000E+00  0.00000000E+00
  0.00000000E+00  0.00000000E+00  0.00000000E+00
  0.00000000E+00  0.00000000E+00  0.00000000E+00
  0.00000000E+00  0.00000000E+00  0.00000000E+00
  0.00000000E+00  0.00000000E+00  0.00000000E+00
  0.00000000E+00  0.00000000E+00  0.00000000E+00
  0.00000000E+00  0.00000000E+00  0.00000000E+00
  0.00000000E+00  0.00000000E+00  0.00000000E+00
  0.00000000E+00  0.00000000E+00  0.00000000E+00
  0.00000000E+00  0.00000000E+00  0.00000000E+00
  0.00000000E+00  0.00000000E+00  0.00000000E+00
  0.00000000E+00  0.00000000E+00  0.00000000E+00
  0.00000000E+00  0.00000000E+00  0.00000000E+00
  0.00000000E+00  0.00000000E+00  0.00000000E+00
  0.00000000E+00  0.00000000E+00  0.00000000E+00
  0.00000000E+00  0.00000000E+00  0.00000000E+00
  0.00000000E+00  0.00000000E+00  0.00000000E+00
  0.00000000E+00  0.00000000E+00  0.00000000E+00
  0.00000000E+00  0.00000000E+00  0.00000000E+00
  0.00000000E+00  0.00000000E+00  0.00000000E+00
  0.00000000E+00  0.00000000E+00  0.00000000E+00
  0.00000000E+00  0.00000000E+00  0.00000000E+00
  0.00000000E+00  0.00000000E+00  0.00000000E+00
  0.00000000E+00  0.00000000E+00  0.00000000E+00
  0.00000000E+00  0.00000000E+00  0.00000000E+00
  0.00000000E+00  0.00000000E+00  0.00000000E+00
  0.00000000E+00  0.00000000E+00  0.00000000E+00
  0.00000000E+00  0.00000000E+00  0.00000000E+00
  0.00000000E+00  0.00000000E+00  0.00000000E+00
  0.00000000E+00  0.00000000E+00  0.00000000E+00
  0.00000000E+00  0.00000000E+00  0.00000000E+00
  0.00000000E+00  0.00000000E+00  0.00000000E+00
  0.00000000E+00  0.00000000E+00  0.00000000E+00
  0.00000000E+00  0.00000000E+00  0.00000000E+00
  0.00000000E+00  0.00000000E+00  0.00000000E+00
  0.00000000E+00  0.00000000E+00  0.00000000E+00
  0.00000000E+00  0.00000000E+00  0.00000000E+00
  0.00000000E+00  0.00000000E+00  0.00000000E+00
  0.00000000E+00  0.00000000E+00  0.00000000E+00
  0.00000000E+00  0.00000000E+00  0.00000000E+00
  0.00000000E+00  0.00000000E+00  0.00000000E+00
  0.00000000E+00  0.00000000E+00  0.00000000E+00
  0.00000000E+00  0.00000000E+00  0.00000000E+00
  0.00000000E+00  0.00000000E+00  0.00000000E+00
  0.00000000E+00  0.00000000E+00  0.00000000E+00
  0.00000000E+00  0.00000000E+00  0.00000000E+00
  0.00000000E+00  0.00000000E+00  0.00000000E+00
  0.00000000E+00  0.00000000E+00  0.00000000E+00
  0.00000000E+00  0.00000000E+00  0.00000000E+00
  0.00000000E+00  0.00000000E+00  0.00000000E+00
  0.00000000E+00  0.00000000E+00  0.00000000E+00
  0.00000000E+00  0.00000000E+00  0.00000000E+00
  0.00000000E+00  0.00000000E+00  0.00000000E+00
  0.00000000E+00  0.00000000E+00  0.00000000E+00
  0.00000000E+00  0.00000000E+00  0.00000000E+00
  0.00000000E+00  0.00000000E+00  0.00000000E+00
  0.00000000E+00  0.00000000E+00  0.00000000E+00
  0.00000000E+00  0.00000000E+00  0.00000000E+00
  0.00000000E+00  0.00000000E+00  0.00000000E+00
  0.00000000E+00  0.00000000E+00  0.00000000E+00
  0.00000000E+00  0.00000000E+00  0.00000000E+00
  0.00000000E+00  0.00000000E+00  0.00000000E+00
  0.00000000E+00  0.00000000E+00  0.00000000E+00
  0.00000000E+00  0.00000000E+00  0.00000000E+00
  0.00000000E+00  0.00000000E+00  0.00000000E+00
  0.00000000E+00  0.00000000E+00  0.00000000E+00
  0.00000000E+00  0.00000000E+00  0.00000000E+00
  0.00000000E+00  0.00000000E+00  0.00000000E+00
  0.00000000E+00  0.00000000E+00  0.00000000E+00
  0.00000000E+00  0.00000000E+00  0.00000000E+00
  0.00000000E+00  0.00000000E+00  0.00000000E+00
  0.00000000E+00  0.00000000E+00  0.00000000E+00
  0.00000000E+00  0.00000000E+00  0.00000000E+00
  0.00000000E+00  0.00000000E+00  0.00000000E+00
  0.00000000E+00  0.00000000E+00  0.00000000E+00
  0.00000000E+00  0.00000000E+00  0.00000000E+00
  0.00000000E+00  0.00000000E+00  0.00000000E+00
  0.00000000E+00  0.00000000E+00  0.00000000E+00
  0.00000000E+00  0.00000000E+00  0.00000000E+00
  0.00000000E+00  0.00000000E+00  0.00000000E+00