SiVH3                                   
   1.00000000000000     
    10.9404879857440527    0.0000000000000000    0.0000000000000000
     0.0000000000000000   10.9404879857440527    0.0000000000000000
     0.0000000000000000    0.0000000000000000   10.9404879857440527
   Si   H 
    63     3
Direct
  0.1244940271733734  0.1241581142386285  0.1246567264203968
  0.3745699917575960  0.3742345329575266  0.1247044897830004
  0.3745665393325074  0.1242091744408515  0.3747361572636214
  0.1245397433556741  0.3742382181215211  0.3747288598540606
  0.9989561718346872  0.9986237386130763  0.9991196498751298
  0.2493235037868502  0.2489815699972022 -0.0001675464752805
  0.2493174594423383  0.9993349288378651  0.2494876256197939
 -0.0003310513877544  0.2489880899464016  0.2494786657194044
  0.1251099734572583  0.1247775761972442  0.6259307929493232
  0.3663180622779335  0.3660077128878902  0.6363475717399065
  0.3739116957802118  0.1222133003999635  0.8768402776947258
  0.1225341049130403  0.3735689848036669  0.8768627949862278
  0.0004857778885930  0.0001368518991005  0.5002112721103402
  0.2487418514462674  0.2484162955093492  0.4993162924925734
  0.2489725174201020  0.9985845946979739  0.7502862299219044
  0.9989165051140811  0.2486360923358792  0.7502928475429518
  0.1251060129909114  0.6254361453704158  0.1252714788582807
  0.3739035505504091  0.8763640895817734  0.1226985673288588
  0.3663395859943241  0.6358452056987904  0.3664780304634994
  0.1225506217986525  0.8763417751287443  0.3740767159131917
  0.0004700660777067  0.4997142896060355  0.0006460214577058
  0.2489678986365340  0.7497968132972397  0.9990801299050871
  0.2487427041848644  0.4988206216784445  0.2489016156709802
  0.9989172110267417  0.7497927447741092  0.2491370071327207
  0.1237771649517998  0.6237967421259283  0.6242994640426028
  0.3722132799375635  0.8745531760826992  0.6232350211543460
  0.3722069068289356  0.6227381899419968  0.8750562678505505
  0.1230965948036830  0.8729977274523257  0.8734887594472586
  0.9990302481481725  0.4988067312309433  0.4993037640882779
  0.2449812484367045  0.7521497622406856  0.4990798347242649
  0.2449553715745332  0.4985787378154650  0.7526761090622404
  0.9975418747686612  0.7478949791826306  0.7483858955735780
  0.6257653359610715  0.1247813495575607  0.1252760144173507
  0.8766773055751418  0.3735779689638579  0.1227109813234258
  0.8766998418829586  0.1221976621491578  0.3740654238770452
  0.6361869503789888  0.3659861994094630  0.3665096825634863
  0.5000476207406838  0.0001519871695375  0.0006374385396414
  0.7501226773240708  0.2486409036536990  0.9990815749836132
  0.7501268472039720  0.9985842550723739  0.2491314011867828
  0.4991517277180095  0.2484149128823651  0.2489161084910875
  0.6241362441286503  0.1234417860189516  0.6242956624147216
  0.8748917907835504  0.3718734646874971  0.6232337147643319
  0.8733256529583230  0.1227648954883115  0.8734947295887602
  0.6230706920877621  0.3718801074695058  0.8750498832087480
  0.4991403847643025  0.9986970264769727  0.4993035460453230
  0.7525139960361570  0.2446180334946744  0.4990763305728217
  0.7482235911185903  0.9972076235705232  0.7483939876381522
  0.4989159251474554  0.2446440587586440  0.7526503922103208
  0.6241329205682301  0.6238002943404573  0.1239405760061767
  0.8733295064388853  0.8729940595042001  0.1232604375900237
  0.8748875265029329  0.6227396181832922  0.3723770428620690
  0.6230696106548508  0.8745581513424333  0.3723699295665017
  0.4991398586127786  0.4988073266906040  0.9991940057300031
  0.7482296780762011  0.7478885487430851  0.9977055768143612
  0.7524890141470423  0.4985819918525160  0.2451431800627193
  0.4989129564299720  0.7521749878604368  0.2451186993278242
  0.6504623869209197  0.6501317486038083  0.6506267632032406
  0.8745453659581146  0.8742169272396981  0.6233376811814022
  0.8745493399645207  0.6228398244929539  0.8747066814695960
  0.6231743823087691  0.8742123270662893  0.8747165143300225
  0.7512319682823848  0.7509048244700808  0.4946973531748029
  0.7512352819905350  0.4942007168127731  0.7513938755442835
  0.4945339872308043  0.7509006949708570  0.7514022557435258
  0.4483767262786536  0.4481277936392686  0.5664724833811047
  0.4484538887235323  0.5659514740579003  0.4485263734256199
  0.5663247817982142  0.4480471002138507  0.4486390655895783
 
  0.00000000E+00  0.00000000E+00  0.00000000E+00
  0.00000000E+00  0.00000000E+00  0.00000000E+00
  0.00000000E+00  0.00000000E+00  0.00000000E+00
  0.00000000E+00  0.00000000E+00  0.00000000E+00
  0.00000000E+00  0.00000000E+00  0.00000000E+00
  0.00000000E+00  0.00000000E+00  0.00000000E+00
  0.00000000E+00  0.00000000E+00  0.00000000E+00
  0.00000000E+00  0.00000000E+00  0.00000000E+00
  0.00000000E+00  0.00000000E+00  0.00000000E+00
  0.00000000E+00  0.00000000E+00  0.00000000E+00
  0.00000000E+00  0.00000000E+00  0.00000000E+00
  0.00000000E+00  0.00000000E+00  0.00000000E+00
  0.00000000E+00  0.00000000E+00  0.00000000E+00
  0.00000000E+00  0.00000000E+00  0.00000000E+00
  0.00000000E+00  0.00000000E+00  0.00000000E+00
  0.00000000E+00  0.00000000E+00  0.00000000E+00
  0.00000000E+00  0.00000000E+00  0.00000000E+00
  0.00000000E+00  0.00000000E+00  0.00000000E+00
  0.00000000E+00  0.00000000E+00  0.00000000E+00
  0.00000000E+00  0.00000000E+00  0.00000000E+00
  0.00000000E+00  0.00000000E+00  0.00000000E+00
  0.00000000E+00  0.00000000E+00  0.00000000E+00
  0.00000000E+00  0.00000000E+00  0.00000000E+00
  0.00000000E+00  0.00000000E+00  0.00000000E+00
  0.00000000E+00  0.00000000E+00  0.00000000E+00
  0.00000000E+00  0.00000000E+00  0.00000000E+00
  0.00000000E+00  0.00000000E+00  0.00000000E+00
  0.00000000E+00  0.00000000E+00  0.00000000E+00
  0.00000000E+00  0.00000000E+00  0.00000000E+00
  0.00000000E+00  0.00000000E+00  0.00000000E+00
  0.00000000E+00  0.00000000E+00  0.00000000E+00
  0.00000000E+00  0.00000000E+00  0.00000000E+00
  0.00000000E+00  0.00000000E+00  0.00000000E+00
  0.00000000E+00  0.00000000E+00  0.00000000E+00
  0.00000000E+00  0.00000000E+00  0.00000000E+00
  0.00000000E+00  0.00000000E+00  0.00000000E+00
  0.00000000E+00  0.00000000E+00  0.00000000E+00
  0.00000000E+00  0.00000000E+00  0.00000000E+00
  0.00000000E+00  0.00000000E+00  0.00000000E+00
  0.00000000E+00  0.00000000E+00  0.00000000E+00
  0.00000000E+00  0.00000000E+00  0.00000000E+00
  0.00000000E+00  0.00000000E+00  0.00000000E+00
  0.00000000E+00  0.00000000E+00  0.00000000E+00
  0.00000000E+00  0.00000000E+00  0.00000000E+00
  0.00000000E+00  0.00000000E+00  0.00000000E+00
  0.00000000E+00  0.00000000E+00  0.00000000E+00
  0.00000000E+00  0.00000000E+00  0.00000000E+00
  0.00000000E+00  0.00000000E+00  0.00000000E+00
  0.00000000E+00  0.00000000E+00  0.00000000E+00
  0.00000000E+00  0.00000000E+00  0.00000000E+00
  0.00000000E+00  0.00000000E+00  0.00000000E+00
  0.00000000E+00  0.00000000E+00  0.00000000E+00
  0.00000000E+00  0.00000000E+00  0.00000000E+00
  0.00000000E+00  0.00000000E+00  0.00000000E+00
  0.00000000E+00  0.00000000E+00  0.00000000E+00
  0.00000000E+00  0.00000000E+00  0.00000000E+00
  0.00000000E+00  0.00000000E+00  0.00000000E+00
  0.00000000E+00  0.00000000E+00  0.00000000E+00
  0.00000000E+00  0.00000000E+00  0.00000000E+00
  0.00000000E+00  0.00000000E+00  0.00000000E+00
  0.00000000E+00  0.00000000E+00  0.00000000E+00
  0.00000000E+00  0.00000000E+00  0.00000000E+00
  0.00000000E+00  0.00000000E+00  0.00000000E+00
  0.00000000E+00  0.00000000E+00  0.00000000E+00
  0.00000000E+00  0.00000000E+00  0.00000000E+00
  0.00000000E+00  0.00000000E+00  0.00000000E+00
